25
Coordinates from ORCA-job orca_input E -132.636948028561
  Br         -1.52244746350251      2.92445947304470      1.94203998535331
  C          -0.09035479320098      0.85513910091548      0.59518587284072
  C          -0.03136967970892      1.63141847581983      1.88551258024562
  C           1.19726871538124      2.50853293202344      2.05496013220257
  O           1.89511650720455      2.76790308444715      1.10935480254653
  C          -1.33752109344670      0.05407040075065      0.33615208248200
  C          -1.58130716573601     -0.36143166477887     -0.96678260138585
  C          -2.65984718802190     -1.16767040092242     -1.27846636297650
  C          -3.52106969362380     -1.57026542598548     -0.26828607387757
  C          -3.29709610032558     -1.14642628830212      1.03027716565477
  C          -2.20862844256116     -0.34489526458615      1.33514517720239
  C           1.45322284298970      3.08145195968698      3.41383774416509
  H           0.12305842513090      1.50715405606013     -0.24641513144144
  H          -0.17973788634481      1.00465305193564      2.75389960066599
  H          -0.90504870667767     -0.06512241260050     -1.75881564062759
  H          -2.82487669053530     -1.48424789550833     -2.29906689574578
  H          -4.36836717599301     -2.20387346887359     -0.49268445332398
  H          -3.97665443074541     -1.44157600961338      1.81821063976615
  H          -2.04556263818577     -0.03919654549740      2.35711811671997
  H           1.11815620957473      4.11792884930368      3.37858609361455
  H           0.90475191054016      2.56042726654582      4.19457882387173
  H           2.52246130161610      3.05457582645267      3.61144280907149
  Br          1.42890905854554     -0.42809578058984      0.57722750766120
  Br          2.08821195314910     -0.73924519788258      3.99032788921632
  Br          2.41336222447754     -0.06178812184558      6.15282013609819
