25
Coordinates from ORCA-job orca_input E -132.600515021390
  Br     -1.369620      3.736920      1.319540
  C      -0.557870      1.314540      0.574840
  C      -0.408100      2.098660      1.806440
  C       1.034380      2.495510      2.127970
  O       1.893030      2.346280      1.299910
  C      -1.484500      0.329420      0.334040
  C      -1.529790     -0.220380     -0.975280
  C      -2.443060     -1.190230     -1.282860
  C      -3.313230     -1.636170     -0.294230
  C      -3.288230     -1.118600      1.002470
  C      -2.389800     -0.143440      1.321880
  C       1.260540      3.039450      3.493130
  H       0.125480      1.581130     -0.224750
  H      -0.912110      1.695090      2.676040
  H      -0.838120      0.146740     -1.721080
  H      -2.487510     -1.610630     -2.276330
  H      -4.031960     -2.408400     -0.535360
  H      -3.978240     -1.492300      1.744220
  H      -2.368430      0.259800      2.322780
  H       0.486970      3.757730      3.756370
  H       1.201730      2.216670      4.206840
  H       2.240560      3.501620      3.552380
  Br      1.194700     -2.162980      1.709860
  Br      2.612620     -1.226990      3.660610
  Br      3.945190     -0.295560      5.626730
25
Coordinates from ORCA-job orca_input E -132.600717818339
  Br     -1.371218      3.741092      1.322152
  C      -0.561789      1.317129      0.578866
  C      -0.412850      2.101074      1.809945
  C       1.030977      2.495810      2.128386
  O       1.887520      2.343071      1.297873
  C      -1.486272      0.331350      0.336426
  C      -1.524433     -0.221031     -0.971540
  C      -2.434371     -1.193611     -1.280683
  C      -3.308049     -1.638910     -0.294587
  C      -3.289225     -1.118806      1.000937
  C      -2.393649     -0.141477      1.321777
  C       1.264116      3.039905      3.491631
  H       0.121341      1.586252     -0.219671
  H      -0.917283      1.699047      2.680131
  H      -0.830013      0.145865     -1.715021
  H      -2.474524     -1.615818     -2.273616
  H      -4.024156     -2.413215     -0.536891
  H      -3.980638     -1.493145      1.741042
  H      -2.375350      0.262870      2.322301
  H       0.494162      3.760342      3.758678
  H       1.205282      2.216441      4.204506
  H       2.246607      3.497690      3.546006
  Br      1.187976     -2.157135      1.717457
  Br      2.595635     -1.225818      3.662361
  Br      3.944836     -0.305088      5.597694
25
Coordinates from ORCA-job orca_input E -132.600816272724
  Br     -1.371743      3.746122      1.328985
  C      -0.567513      1.320298      0.583612
  C      -0.417881      2.102808      1.815203
  C       1.027995      2.494426      2.128833
  O       1.880684      2.337369      1.294402
  C      -1.489907      0.333886      0.338598
  C      -1.519358     -0.221519     -0.968053
  C      -2.424705     -1.197798     -1.279136
  C      -3.302729     -1.642408     -0.296358
  C      -3.291930     -1.119230      0.997858
  C      -2.399977     -0.139245      1.320822
  C       1.270409      3.038856      3.489888
  H       0.114989      1.593440     -0.213943
  H      -0.922025      1.702178      2.686206
  H      -0.821491      0.145086     -1.708439
  H      -2.459178     -1.622523     -2.271218
  H      -4.015505     -2.419249     -0.540364
  H      -3.985244     -1.494452      1.735727
  H      -2.385503      0.266327      2.320939
  H       0.504236      3.761439      3.761592
  H       1.212230      2.214239      4.201696
  H       2.255417      3.491858      3.537887
  Br      1.174966     -2.150914      1.720917
  Br      2.578852     -1.221631      3.666884
  Br      3.949542     -0.305483      5.573621
25
Coordinates from ORCA-job orca_input E -132.600923283150
  Br     -1.371492      3.753335      1.341343
  C      -0.575755      1.325492      0.588768
  C      -0.423547      2.104688      1.821987
  C       1.025353      2.491554      2.128708
  O       1.872159      2.329632      1.288613
  C      -1.495492      0.338070      0.340687
  C      -1.513719     -0.221894     -0.964073
  C      -2.412077     -1.204039     -1.276820
  C      -3.295389     -1.647611     -0.298125
  C      -3.295517     -1.119526      0.994042
  C      -2.408798     -0.135483      1.319267
  C       1.279758      3.035035      3.487613
  H       0.105439      1.604313     -0.207823
  H      -0.926582      1.704804      2.693989
  H      -0.811580      0.144268     -1.700593
  H      -2.438527     -1.633215     -2.267233
  H      -4.003338     -2.428317     -0.543861
  H      -3.991400     -1.495578      1.729059
  H      -2.399607      0.272576      2.318482
  H       0.517973      3.759643      3.765814
  H       1.222377      2.208005      4.196909
  H       2.267698      3.482135      3.528369
  Br      1.153770     -2.141491      1.719462
  Br      2.560010     -1.212743      3.670992
  Br      3.952911     -0.299772      5.550583
25
Coordinates from ORCA-job orca_input E -132.601086599310
  Br     -1.370118      3.764659      1.362018
  C      -0.587660      1.334698      0.593535
  C      -0.429898      2.107603      1.829980
  C       1.023431      2.486974      2.127278
  O       1.861777      2.320319      1.279301
  C      -1.503726      0.345423      0.342397
  C      -1.507135     -0.222161     -0.959157
  C      -2.394321     -1.214163     -1.272208
  C      -3.283829     -1.656052     -0.298277
  C      -3.299348     -1.119340      0.990204
  C      -2.420784     -0.128462      1.317019
  C       1.293170      3.025966      3.484785
  H       0.091110      1.621142     -0.202322
  H      -0.930552      1.706947      2.702999
  H      -0.799964      0.143385     -1.691085
  H      -2.408964     -1.651538     -2.259270
  H      -3.984260     -2.443216     -0.544983
  H      -3.998769     -1.495709      1.721682
  H      -2.419540      0.285019      2.314096
  H       0.536759      3.752198      3.772856
  H       1.236399      2.194037      4.188679
  H       2.284649      3.465458      3.518220
  Br      1.120191     -2.125267      1.709760
  Br      2.537468     -1.196028      3.671159
  Br      3.948545     -0.288012      5.527492
25
Coordinates from ORCA-job orca_input E -132.601221665229
  Br     -1.368239      3.771944      1.374901
  C      -0.593795      1.341558      0.592916
  C      -0.431326      2.109871      1.831800
  C       1.024387      2.484498      2.125326
  O       1.858926      2.318163      1.273874
  C      -1.508210      0.350863      0.341859
  C      -1.505366     -0.222039     -0.957552
  C      -2.385412     -1.220942     -1.268364
  C      -3.276469     -1.661897     -0.295481
  C      -3.299769     -1.118654      0.990261
  C      -2.426337     -0.122838      1.315870
  C       1.299790      3.017382      3.484236
  H       0.083171      1.630897     -0.203445
  H      -0.930074      1.706858      2.704806
  H      -0.797029      0.143381     -1.688392
  H      -2.393508     -1.664593     -2.252683
  H      -3.972152     -2.453679     -0.540868
  H      -4.000922     -1.494121      1.720544
  H      -2.430087      0.295830      2.310774
  H       0.545186      3.743069      3.778301
  H       1.243061      2.181460      4.183467
  H       2.292438      3.454107      3.517314
  Br      1.099828     -2.113752      1.697287
  Br      2.529721     -1.183767      3.665105
  Br      3.936817     -0.279719      5.524305
25
Coordinates from ORCA-job orca_input E -132.601364303159
  Br     -1.365791      3.778738      1.384051
  C      -0.597260      1.348943      0.588238
  C      -0.430006      2.113153      1.829270
  C       1.027187      2.483211      2.122666
  O       1.860792      2.321226      1.270197
  C      -1.511064      0.356834      0.339749
  C      -1.506062     -0.221602     -0.957502
  C      -2.379585     -1.227573     -1.263494
  C      -3.269158     -1.668043     -0.289161
  C      -3.297345     -1.117322      0.993520
  C      -2.428781     -0.116077      1.315250
  C       1.302938      3.006327      3.485614
  H       0.077997      1.637828     -0.209822
  H      -0.926930      1.706086      2.701422
  H      -0.799288      0.144190     -1.689678
  H      -2.382832     -1.677929     -2.244780
  H      -3.960318     -2.464885     -0.530935
  H      -3.999411     -1.490714      1.723995
  H      -2.437654      0.309560      2.307125
  H       0.548549      3.730029      3.785249
  H       1.246306      2.166056      4.179511
  H       2.295473      3.443029      3.523018
  Br      1.083234     -2.101269      1.680783
  Br      2.527480     -1.171581      3.652842
  Br      3.916158     -0.274336      5.529034
25
Coordinates from ORCA-job orca_input E -132.601522939015
  Br     -1.363094      3.789145      1.396994
  C      -0.603214      1.359520      0.583892
  C      -0.430475      2.118362      1.827361
  C       1.028953      2.480940      2.119546
  O       1.860305      2.323524      1.264442
  C      -1.515659      0.365845      0.337842
  C      -1.504498     -0.221142     -0.955589
  C      -2.367708     -1.237562     -1.255713
  C      -3.256638     -1.677183     -0.280634
  C      -3.294254     -1.115256      0.997010
  C      -2.433751     -0.105725      1.314001
  C       1.308590      2.990455      3.486930
  H       0.069827      1.648808     -0.215908
  H      -0.925233      1.706653      2.698561
  H      -0.798722      0.144950     -1.688568
  H      -2.362721     -1.697324     -2.232618
  H      -3.940370     -2.481771     -0.517806
  H      -3.997849     -1.486413      1.727153
  H      -2.451152      0.329648      2.301531
  H       0.556439      3.712537      3.796017
  H       1.252565      2.144007      4.173368
  H       2.301867      3.425284      3.527165
  Br      1.056304     -2.081127      1.661201
  Br      2.515317     -1.153784      3.638062
  Br      3.889800     -0.268509      5.521920
25
Coordinates from ORCA-job orca_input E -132.601723064534
  Br     -1.359302      3.804171      1.414086
  C      -0.611660      1.374254      0.578764
  C      -0.432402      2.126199      1.825162
  C       1.030034      2.477188      2.115925
  O       1.858068      2.326101      1.256596
  C      -1.522460      0.379056      0.335430
  C      -1.500811     -0.220540     -0.951964
  C      -2.348881     -1.251764     -1.243979
  C      -3.237405     -1.690345     -0.268313
  C      -3.289779     -1.112147      1.001522
  C      -2.441655     -0.090328      1.311759
  C       1.316973      2.966599      3.488997
  H       0.058755      1.664099     -0.222971
  H      -0.924691      1.708740      2.695029
  H      -0.796000      0.145773     -1.685759
  H      -2.331742     -1.724334     -2.214614
  H      -3.909762     -2.506367     -0.498823
  H      -3.995261     -1.480776      1.731131
  H      -2.472201      0.358691      2.292853
  H       0.569274      3.686965      3.812654
  H       1.262399      2.111293      4.164598
  H       2.311724      3.398020      3.531083
  Br      1.015250     -2.049995      1.635287
  Br      2.490676     -1.127499      3.618688
  Br      3.855489     -0.259175      5.503019
25
Coordinates from ORCA-job orca_input E -132.601926121747
  Br     -1.353483      3.823988      1.434740
  C      -0.622211      1.393065      0.572383
  C      -0.435567      2.136700      1.822209
  C       1.030512      2.471344      2.112029
  O       1.854290      2.329492      1.246925
  C      -1.531651      0.396875      0.332005
  C      -1.495064     -0.219653     -0.946772
  C      -2.322918     -1.269937     -1.227732
  C      -3.210778     -1.707474     -0.251288
  C      -3.283393     -1.107833      1.007495
  C      -2.452526     -0.069369      1.308220
  C       1.327945      2.932543      3.492315
  H       0.045743      1.683016     -0.231256
  H      -0.925519      1.712514      2.690155
  H      -0.791363      0.146517     -1.681680
  H      -2.289849     -1.758475     -2.190016
  H      -3.867316     -2.538815     -0.472421
  H      -3.990605     -1.473918      1.736721
  H      -2.501020      0.397145      2.280438
  H       0.586926      3.650574      3.836080
  H       1.275752      2.065154      4.152663
  H       2.324780      3.359242      3.535434
  Br      0.958083     -2.005582      1.601616
  Br      2.450560     -1.090793      3.593793
  Br      3.813302     -0.242438      5.472105
25
Coordinates from ORCA-job orca_input E -132.602027363186
  Br     -1.347859      3.838582      1.446898
  C      -0.628590      1.406319      0.567048
  C      -0.437435      2.144755      1.819159
  C       1.030989      2.466578      2.109963
  O       1.852335      2.333781      1.240803
  C      -1.538372      0.410418      0.328738
  C      -1.490715     -0.218825     -0.943336
  C      -2.304029     -1.282776     -1.215172
  C      -3.190469     -1.720033     -0.237287
  C      -3.277604     -1.104705      1.013017
  C      -2.460104     -0.053432      1.305296
  C       1.335533      2.904143      3.496204
  H       0.038861      1.694808     -0.237456
  H      -0.926729      1.716289      2.685376
  H      -0.788166      0.146722     -1.679637
  H      -2.260159     -1.782096     -2.171476
  H      -3.834887     -2.562801     -0.450612
  H      -3.984831     -1.469598      1.742840
  H      -2.521644      0.425501      2.270727
  H       0.599401      3.619792      3.855213
  H       1.285001      2.027094      4.143569
  H       2.333795      3.327524      3.540478
  Br      0.913876     -1.968794      1.575770
  Br      2.414320     -1.061404      3.573664
  Br      3.782112     -0.223959      5.446374
25
Coordinates from ORCA-job orca_input E -132.602083352567
  Br     -1.343701      3.844620      1.447814
  C      -0.629254      1.410895      0.564187
  C      -0.437209      2.148450      1.817011
  C       1.031946      2.464593      2.110100
  O       1.853087      2.338536      1.239412
  C      -1.540949      0.416275      0.326578
  C      -1.489072     -0.218395     -0.942767
  C      -2.297367     -1.287769     -1.209926
  C      -3.182081     -1.725440     -0.230250
  C      -3.274024     -1.103862      1.016826
  C      -2.462386     -0.046627      1.303973
  C       1.338419      2.888997      3.499975
  H       0.039623      1.696865     -0.240019
  H      -0.927543      1.719260      2.682275
  H      -0.787418      0.146285     -1.680336
  H      -2.250579     -1.790482     -2.164321
  H      -3.821321     -2.573115     -0.439647
  H      -3.979653     -1.468992      1.748072
  H      -2.528384      0.436897      2.266769
  H       0.603681      3.602829      3.865505
  H       1.288123      2.006638      4.139654
  H       2.337153      3.311142      3.545978
  Br      0.894182     -1.948833      1.564279
  Br      2.391640     -1.046189      3.562407
  Br      3.767718     -0.208698      5.432610
25
Coordinates from ORCA-job orca_input E -132.602169986328
  Br     -1.336526      3.847812      1.439705
  C      -0.625258      1.411051      0.561667
  C      -0.434521      2.150769      1.814157
  C       1.034529      2.463488      2.112015
  O       1.856758      2.348220      1.240456
  C      -1.541716      0.419850      0.323957
  C      -1.488690     -0.218129     -0.944003
  C      -2.296351     -1.289945     -1.206894
  C      -3.177494     -1.728811     -0.223886
  C      -3.269119     -1.104460      1.022172
  C      -2.461323     -0.042549      1.303297
  C       1.339781      2.873019      3.506678
  H       0.047867      1.691767     -0.240901
  H      -0.928277      1.723850      2.678556
  H      -0.788390      0.144791     -1.683676
  H      -2.251438     -1.792572     -2.161444
  H      -3.813729     -2.579562     -0.429917
  H      -3.970391     -1.471226      1.756730
  H      -2.527233      0.442439      2.265292
  H       0.604090      3.583849      3.876377
  H       1.288234      1.984262      4.136700
  H       2.338543      3.294545      3.557112
  Br      0.880194     -1.926503      1.556303
  Br      2.361521     -1.029767      3.548329
  Br      3.753569     -0.182307      5.417378
25
Coordinates from ORCA-job orca_input E -132.602240036585
  Br     -1.328242      3.845086      1.425906
  C      -0.617562      1.405003      0.561424
  C      -0.429488      2.148955      1.812195
  C       1.038390      2.463917      2.114366
  O       1.862053      2.359506      1.242796
  C      -1.539349      0.418142      0.322632
  C      -1.490585     -0.218360     -0.946348
  C      -2.303217     -1.287261     -1.208156
  C      -3.180282     -1.727421     -0.222000
  C      -3.264905     -1.106463      1.026296
  C      -2.455964     -0.044457      1.304295
  C       1.338703      2.864333      3.512896
  H       0.060589      1.680467     -0.238832
  H      -0.927484      1.726987      2.676505
  H      -0.791545      0.142965     -1.687919
  H      -2.265118     -1.786019     -2.165049
  H      -3.818225     -2.577051     -0.427413
  H      -3.961034     -1.475448      1.764577
  H      -2.515638      0.437344      2.268273
  H       0.599350      3.571906      3.881793
  H       1.284264      1.970873      4.135797
  H       2.336876      3.286213      3.569979
  Br      0.881214     -1.912400      1.556476
  Br      2.339097     -1.018988      3.536239
  Br      3.742732     -0.153950      5.409432
25
Coordinates from ORCA-job orca_input E -132.602287184892
  Br     -1.321464      3.838524      1.414468
  C      -0.610254      1.396442      0.563168
  C      -0.423983      2.143766      1.811907
  C       1.042496      2.464856      2.115581
  O       1.866692      2.368435      1.243967
  C      -1.535448      0.412911      0.323042
  C      -1.493806     -0.218951     -0.948274
  C      -2.313107     -1.282148     -1.211905
  C      -3.187380     -1.723121     -0.224076
  C      -3.262901     -1.108682      1.027706
  C      -2.449391     -0.050279      1.306461
  C       1.337127      2.862964      3.516139
  H       0.071008      1.669135     -0.235483
  H      -0.924778      1.726700      2.676871
  H      -0.795583      0.141989     -1.690794
  H      -2.282387     -1.776300     -2.171458
  H      -3.829902     -2.568925     -0.431046
  H      -3.955732     -1.479145      1.768337
  H      -2.500829      0.426348      2.273491
  H       0.593772      3.568034      3.881880
  H       1.279498      1.967530      4.136114
  H       2.334521      3.285594      3.579805
  Br      0.891862     -1.907822      1.560897
  Br      2.330865     -1.013333      3.528224
  Br      3.733734     -0.130643      5.411137
25
Coordinates from ORCA-job orca_input E -132.602323491715
  Br     -1.316150      3.830567      1.408410
  C      -0.605144      1.387922      0.566410
  C      -0.418913      2.136524      1.813631
  C       1.046615      2.464986      2.115644
  O       1.869702      2.374546      1.242837
  C      -1.531695      0.406445      0.324839
  C      -1.496969     -0.219730     -0.949046
  C      -2.321901     -1.276993     -1.216186
  C      -3.195361     -1.718285     -0.228314
  C      -3.263291     -1.110641      1.026710
  C      -2.444088     -0.057535      1.309013
  C       1.337541      2.863972      3.516758
  H       0.076986      1.660518     -0.231595
  H      -0.920684      1.723332      2.679766
  H      -0.798853      0.141986     -1.691330
  H      -2.296456     -1.767554     -2.177724
  H      -3.843031     -2.559512     -0.437932
  H      -3.955232     -1.481655      1.767936
  H      -2.488282      0.413894      2.278938
  H       0.591598      3.567485      3.880243
  H       1.277112      1.968111      4.136281
  H       2.334470      3.286773      3.585518
  Br      0.903349     -1.906650      1.565141
  Br      2.330348     -1.006671      3.522810
  Br      3.722960     -0.107956      5.417402
25
Coordinates from ORCA-job orca_input E -132.602355496203
  Br     -1.312627      3.822237      1.408241
  C      -0.602594      1.380448      0.570947
  C      -0.414795      2.128229      1.817652
  C       1.050483      2.463807      2.115282
  O       1.870865      2.377707      1.239865
  C      -1.528969      0.399693      0.327739
  C      -1.499140     -0.220686     -0.948723
  C      -2.328089     -1.272877     -1.220527
  C      -3.203124     -1.714148     -0.234163
  C      -3.266475     -1.112432      1.023572
  C      -2.441424     -0.065325      1.311372
  C       1.341210      2.865253      3.515523
  H       0.078489      1.655176     -0.227267
  H      -0.915851      1.717508      2.685273
  H      -0.800222      0.142656     -1.689535
  H      -2.305015     -1.760977     -2.183359
  H      -3.855525     -2.550862     -0.447163
  H      -3.959931     -1.483206      1.763569
  H      -2.480717      0.401461      2.283717
  H       0.595002      3.568618      3.878762
  H       1.278894      1.970227      4.136362
  H       2.338319      3.287189      3.586440
  Br      0.912147     -1.906153      1.568072
  Br      2.333172     -0.996170      3.520287
  Br      3.710546     -0.083494      5.424221
25
Coordinates from ORCA-job orca_input E -132.602383400085
  Br     -1.310996      3.813336      1.412503
  C      -0.601555      1.373685      0.576383
  C      -0.411456      2.119306      1.823571
  C       1.054039      2.461246      2.115363
  O       1.870743      2.378815      1.236294
  C      -1.527218      0.392807      0.331320
  C      -1.500058     -0.221915     -0.947791
  C      -2.332185     -1.269818     -1.224928
  C      -3.210717     -1.710837     -0.241199
  C      -3.272062     -1.114175      1.018957
  C      -2.441200     -0.073349      1.313206
  C       1.347982      2.865561      3.513684
  H       0.077418      1.651668     -0.222529
  H      -0.910665      1.709597      2.692683
  H      -0.799622      0.143334     -1.686304
  H      -2.309412     -1.755765     -2.188832
  H      -3.867405     -2.543161     -0.458131
  H      -3.968773     -1.484168      1.756345
  H      -2.477838      0.389241      2.287644
  H       0.603800      3.570339      3.878418
  H       1.284948      1.972389      4.137124
  H       2.345898      3.285752      3.583332
  Br      0.918103     -1.904736      1.569769
  Br      2.335964     -0.980413      3.520420
  Br      3.696897     -0.054861      5.428859
25
Coordinates from ORCA-job orca_input E -132.602413285359
  Br     -1.311750      3.802687      1.419093
  C      -0.600404      1.366470      0.582254
  C      -0.408409      2.109710      1.830569
  C       1.057211      2.457567      2.116569
  O       1.870236      2.378573      1.233670
  C      -1.525781      0.385325      0.335176
  C      -1.500090     -0.223495     -0.946900
  C      -2.336092     -1.266889     -1.229827
  C      -3.219143     -1.707504     -0.249381
  C      -3.279373     -1.115906      1.013433
  C      -2.442291     -0.081842      1.314394
  C       1.356507      2.865364      3.512273
  H       0.076265      1.647634     -0.217496
  H      -0.905154      1.699528      2.700875
  H      -0.797792      0.143326     -1.682900
  H      -2.313278     -1.749653     -2.195317
  H      -3.880337     -2.535036     -0.470823
  H      -3.980198     -1.484862      1.747450
  H      -2.477533      0.376362      2.290982
  H       0.615947      3.573189      3.878652
  H       1.294011      1.975321      4.139894
  H       2.355566      3.283606      3.577275
  Br      0.924178     -1.903260      1.571372
  Br      2.338466     -0.960404      3.523699
  Br      3.683868     -0.021930      5.431173
25
Coordinates from ORCA-job orca_input E -132.602448392186
  Br     -1.315339      3.789321      1.426379
  C      -0.597697      1.357848      0.587851
  C      -0.405175      2.099399      1.837457
  C       1.059919      2.453042      2.119105
  O       1.870221      2.377323      1.233143
  C      -1.523959      0.377165      0.338724
  C      -1.499828     -0.225346     -0.946585
  C      -2.341544     -1.263087     -1.235341
  C      -3.228956     -1.703170     -0.258232
  C      -3.287218     -1.117358      1.007738
  C      -2.443368     -0.090491      1.314870
  C       1.364853      2.865272      3.511995
  H       0.077357      1.641050     -0.212497
  H      -0.899202      1.687085      2.708361
  H      -0.795716      0.142068     -1.680531
  H      -2.320022     -1.740706     -2.203423
  H      -3.895331     -2.525205     -0.484522
  H      -3.991996     -1.485318      1.738438
  H      -2.477349      0.362758      2.293885
  H       0.628442      3.577569      3.878351
  H       1.303946      1.979663      4.145487
  H       2.364978      3.282097      3.569712
  Br      0.933283     -1.902898      1.573529
  Br      2.341213     -0.938080      3.530330
  Br      3.673117      0.013880      5.431939
25
Coordinates from ORCA-job orca_input E -132.602478038589
  Br     -1.320932      3.772784      1.432241
  C      -0.591940      1.346932      0.592339
  C      -0.400848      2.088269      1.842775
  C       1.062613      2.448235      2.122652
  O       1.871946      2.376189      1.235195
  C      -1.520917      0.368427      0.341207
  C      -1.500327     -0.227316     -0.947450
  C      -2.350406     -1.257430     -1.241496
  C      -3.240532     -1.696906     -0.266786
  C      -3.293821     -1.118258      1.002976
  C      -2.442590     -0.098881      1.314882
  C       1.370725      2.865553      3.513406
  H       0.083223      1.630063     -0.207892
  H      -0.892342      1.672556      2.713585
  H      -0.794906      0.139233     -1.680498
  H      -2.333262     -1.727611     -2.213326
  H      -3.913205     -2.512500     -0.497699
  H      -4.001001     -1.485633      1.731589
  H      -2.473690      0.348508      2.296765
  H       0.637250      3.582716      3.876445
  H       1.311446      1.985018      4.153579
  H       2.371364      3.282192      3.563791
  Br      0.948075     -1.903991      1.576348
  Br      2.344255     -0.915706      3.538679
  Br      3.664450      0.051436      5.432850
25
Coordinates from ORCA-job orca_input E -132.602498530768
  Br     -1.326663      3.756371      1.435833
  C      -0.584272      1.335654      0.594838
  C      -0.395893      2.078074      1.845338
  C       1.065249      2.444318      2.125847
  O       1.875359      2.375213      1.238714
  C      -1.517092      0.360843      0.341966
  C      -1.502078     -0.228862     -0.949409
  C      -2.361366     -1.250633     -1.247243
  C      -3.251793     -1.689583     -0.273239
  C      -3.297504     -1.118354      1.000178
  C      -2.439641     -0.105415      1.314727
  C       1.372389      2.866870      3.515671
  H       0.092875      1.616894     -0.204380
  H      -0.885288      1.658662      2.715643
  H      -0.795980      0.135647     -1.682760
  H      -2.350997     -1.713015     -2.222926
  H      -3.930754     -2.499014     -0.507475
  H      -4.004701     -1.485808      1.728697
  H      -2.465937      0.336176      2.299407
  H       0.639311      3.587756      3.872309
  H       1.313324      1.990708      4.161534
  H       2.372861      3.284448      3.561984
  Br      0.966662     -1.906773      1.579181
  Br      2.347896     -0.898917      3.546311
  Br      3.658663      0.082618      5.435415
25
Coordinates from ORCA-job orca_input E -132.602515484861
  Br     -1.330865      3.744252      1.438472
  C      -0.577553      1.327071      0.595364
  C      -0.391546      2.070714      1.845514
  C       1.067582      2.441926      2.127495
  O       1.879260      2.373788      1.241766
  C      -1.513870      0.356142      0.341226
  C      -1.504510     -0.229581     -0.951678
  C      -2.370929     -1.244695     -1.251390
  C      -3.260019     -1.683360     -0.276610
  C      -3.298359     -1.117752      0.999377
  C      -2.436084     -0.108910      1.314608
  C       1.370709      2.869032      3.517319
  H       0.102358      1.605932     -0.202391
  H      -0.879078      1.648117      2.715380
  H      -0.798119      0.132713     -1.685819
  H      -2.366967     -1.701569     -2.229720
  H      -3.943581     -2.488492     -0.512329
  H      -4.003837     -1.485751      1.729287
  H      -2.457250      0.328458      2.301266
  H       0.636003      3.591783      3.866822
  H       1.309854      1.995551      4.166567
  H       2.370711      3.287682      3.563995
  Br      0.983586     -1.910109      1.580839
  Br      2.351694     -0.890274      3.551389
  Br      3.655439      0.101210      5.439409
25
Coordinates from ORCA-job orca_input E -132.602526034100
  Br     -1.332898      3.736894      1.442267
  C      -0.573195      1.321882      0.595015
  C      -0.387993      2.065761      1.845004
  C       1.069992      2.440339      2.127642
  O       1.882821      2.371915      1.243142
  C      -1.512051      0.354174      0.339947
  C      -1.506860     -0.229611     -0.953530
  C      -2.377248     -1.240786     -1.253814
  C      -3.264716     -1.679429     -0.277694
  C      -3.297962     -1.116928      0.999625
  C      -2.433479     -0.109997      1.314593
  C       1.368676      2.870324      3.517838
  H       0.109066      1.598954     -0.201422
  H      -0.873457      1.640588      2.714806
  H      -0.800195      0.131122     -1.688204
  H      -2.377439     -1.695272     -2.233251
  H      -3.950720     -2.482444     -0.513566
  H      -4.001368     -1.485533      1.731257
  H      -2.450698      0.325135      2.302260
  H       0.632016      3.593695      3.861871
  H       1.304406      1.997744      4.168106
  H       2.368455      3.289014      3.567980
  Br      0.995032     -1.911133      1.580189
  Br      2.353466     -0.884945      3.553119
  Br      3.650981      0.112415      5.442981
25
Coordinates from ORCA-job orca_input E -132.602532839962
  Br     -1.334060      3.732638      1.447743
  C      -0.571336      1.319400      0.594778
  C      -0.385423      2.062353      1.845113
  C       1.072295      2.439096      2.127047
  O       1.885563      2.368997      1.243215
  C      -1.511676      0.353729      0.338954
  C      -1.508723     -0.229249     -0.954766
  C      -2.380556     -1.238764     -1.255260
  C      -3.267078     -1.677592     -0.278136
  C      -3.297954     -1.116350      0.999702
  C      -2.432577     -0.110171      1.314552
  C       1.367938      2.871494      3.517172
  H       0.112106      1.595830     -0.200932
  H      -0.868371      1.634915      2.715231
  H      -0.801677      0.130951     -1.689376
  H      -2.382379     -1.693112     -2.234743
  H      -3.953958     -2.479930     -0.513769
  H      -4.000038     -1.485363      1.732423
  H      -2.447686      0.324112      2.302581
  H       0.630320      3.595486      3.857727
  H       1.299612      1.999376      4.167704
  H       2.368025      3.288863      3.571288
  Br      1.001878     -1.910733      1.578155
  Br      2.354385     -0.881007      3.553654
  Br      3.645999      0.118913      5.446104
25
Coordinates from ORCA-job orca_input E -132.602530512186
  Br     -1.335044      3.729927      1.453957
  C      -0.571187      1.318695      0.594843
  C      -0.383619      2.059856      1.845982
  C       1.074365      2.437851      2.126331
  O       1.887570      2.365314      1.242689
  C      -1.512370      0.354115      0.338420
  C      -1.510040     -0.228623     -0.955464
  C      -2.381644     -1.238163     -1.256000
  C      -3.267845     -1.677331     -0.278395
  C      -3.298526     -1.116108      0.999444
  C      -2.433062     -0.110008      1.314395
  C       1.368741      2.872333      3.515905
  H       0.112276      1.595393     -0.200788
  H      -0.863851      1.630243      2.716567
  H      -0.802693      0.131932     -1.689645
  H      -2.383268     -1.693596     -2.234966
  H      -3.954521     -2.479925     -0.513722
  H      -4.000164     -1.485297      1.732519
  H      -2.447751      0.324342      2.302389
  H       0.631562      3.597573      3.854669
  H       1.296251      2.000731      4.166728
  H       2.369678      3.287134      3.573198
  Br      1.005262     -1.908772      1.575048
  Br      2.354021     -0.877074      3.553607
  Br      3.640488      0.123338      5.448447
25
Coordinates from ORCA-job orca_input E -132.602542060706
  Br     -1.336506      3.727141      1.459997
  C      -0.571734      1.318581      0.595272
  C      -0.382204      2.057522      1.847502
  C       1.076165      2.436465      2.125920
  O       1.889187      2.360782      1.242341
  C      -1.513559      0.354556      0.338318
  C      -1.511116     -0.227796     -0.955896
  C      -2.381896     -1.238072     -1.256542
  C      -3.268104     -1.677762     -0.278917
  C      -3.299598     -1.116273      0.998823
  C      -2.434215     -0.110166      1.314158
  C       1.370577      2.873558      3.514408
  H       0.110912      1.596142     -0.200778
  H      -0.859671      1.625648      2.718531
  H      -0.803724      0.133737     -1.689563
  H      -2.382618     -1.694646     -2.234973
  H      -3.954212     -2.480862     -0.514157
  H      -4.001408     -1.485542      1.731691
  H      -2.449390      0.324428      2.302063
  H       0.635160      3.601177      3.851858
  H       1.293773      2.003194      4.166389
  H       2.372878      3.284716      3.573533
  Br      1.007868     -1.906103      1.571569
  Br      2.352987     -0.873298      3.553791
  Br      3.635080      0.126751      5.450824
25
Coordinates from ORCA-job orca_input E -132.602546114135
  Br     -1.338315      3.723848      1.465015
  C      -0.572440      1.318507      0.596007
  C      -0.381014      2.055124      1.849416
  C       1.077586      2.434863      2.125966
  O       1.890408      2.355829      1.242406
  C      -1.514856      0.354755      0.338600
  C      -1.512050     -0.226820     -0.956110
  C      -2.381836     -1.238106     -1.256926
  C      -3.268133     -1.678502     -0.279639
  C      -3.300786     -1.116870      0.998070
  C      -2.435482     -0.110805      1.313957
  C       1.373063      2.875049      3.513016
  H       0.108827      1.597291     -0.200787
  H      -0.856062      1.621077      2.720736
  H      -0.805036      0.136076     -1.689457
  H      -2.381579     -1.695239     -2.235102
  H      -3.953616     -2.482072     -0.515084
  H      -4.003144     -1.486211      1.730367
  H      -2.451576      0.323892      2.301854
  H       0.640623      3.606292      3.849116
  H       1.291938      2.006755      4.167236
  H       2.377162      3.281719      3.572306
  Br      1.010478     -1.902611      1.567838
  Br      2.351045     -0.869703      3.553943
  Br      3.629426      0.129741      5.453417
25
Coordinates from ORCA-job orca_input E -132.602552844905
  Br     -1.340849      3.719160      1.470360
  C      -0.573170      1.318266      0.596938
  C      -0.379552      2.051970      1.851819
  C       1.079052      2.432565      2.126412
  O       1.891836      2.348823      1.243117
  C      -1.516415      0.354862      0.339082
  C      -1.513421     -0.225277     -0.956342
  C      -2.381913     -1.237951     -1.257236
  C      -3.267913     -1.679589     -0.280377
  C      -3.301744     -1.118095      0.997439
  C      -2.436659     -0.111956      1.313882
  C       1.376249      2.877501      3.511399
  H       0.106098      1.598722     -0.200949
  H      -0.852001      1.615160      2.723233
  H      -0.807529      0.139562     -1.689784
  H      -2.380872     -1.694889     -2.235517
  H      -3.952560     -2.483760     -0.516191
  H      -4.004656     -1.487732      1.729033
  H      -2.453835      0.322563      2.301903
  H       0.648753      3.614980      3.844654
  H       1.288958      2.012959      4.169789
  H       2.383122      3.277408      3.569550
  Br      1.014860     -1.897128      1.562323
  Br      2.347527     -0.866184      3.553689
  Br      3.621264      0.131940      5.457934
25
Coordinates from ORCA-job orca_input E -132.602559809722
  Br     -1.343346      3.712945      1.475486
  C      -0.573156      1.316841      0.598187
  C      -0.377534      2.047673      1.854482
  C       1.080687      2.429551      2.127295
  O       1.893468      2.340895      1.244363
  C      -1.517478      0.354128      0.339755
  C      -1.515399     -0.223504     -0.956692
  C      -2.383283     -1.236867     -1.257951
  C      -3.268400     -1.680232     -0.281411
  C      -3.302103     -1.120080      0.997038
  C      -2.436841     -0.114270      1.314226
  C       1.379684      2.880683      3.509890
  H       0.104159      1.599075     -0.200699
  H      -0.847739      1.608101      2.725770
  H      -0.811209      0.143331     -1.690738
  H      -2.382628     -1.692036     -2.237076
  H      -3.952723     -2.484467     -0.517936
  H      -4.005143     -1.490456      1.728120
  H      -2.454139      0.319045      2.302825
  H       0.658495      3.626625      3.838048
  H       1.284788      2.021552      4.174289
  H       2.389914      3.272378      3.565707
  Br      1.022162     -1.890029      1.555670
  Br      2.342769     -0.862258      3.552800
  Br      3.609625      0.135255      5.464711
25
Coordinates from ORCA-job orca_input E -132.602567567284
  Br     -1.344810      3.708344      1.478878
  C      -0.572931      1.315295      0.599164
  C      -0.376090      2.044278      1.856322
  C       1.081697      2.426890      2.128158
  O       1.894530      2.334044      1.245656
  C      -1.517841      0.353110      0.340336
  C      -1.517396     -0.221937     -0.957020
  C      -2.385168     -1.235350     -1.258688
  C      -3.268886     -1.680609     -0.282069
  C      -3.301234     -1.122451      0.997297
  C      -2.435881     -0.116899      1.315034
  C       1.382028      2.884200      3.508659
  H       0.103061      1.598988     -0.200291
  H      -0.845376      1.603055      2.727297
  H      -0.815073      0.146370     -1.692103
  H      -2.385827     -1.687808     -2.239076
  H      -3.953254     -2.484614     -0.519248
  H      -4.003681     -1.493970      1.728360
  H      -2.452327      0.314649      2.304425
  H       0.666871      3.638729      3.830374
  H       1.280123      2.030933      4.179488
  H       2.395262      3.268554      3.561518
  Br      1.029927     -1.883661      1.549352
  Br      2.338764     -0.861118      3.551486
  Br      3.598143      0.134859      5.472851
25
Coordinates from ORCA-job orca_input E -132.602578008004
  Br     -1.344719      3.705821      1.481776
  C      -0.572691      1.313746      0.599980
  C      -0.375109      2.041722      1.857526
  C       1.082488      2.424202      2.128772
  O       1.895040      2.328265      1.246396
  C      -1.517647      0.351995      0.340819
  C      -1.519403     -0.220616     -0.957283
  C      -2.387407     -1.233547     -1.259444
  C      -3.269181     -1.680929     -0.282240
  C      -3.299068     -1.125311      0.998255
  C      -2.433885     -0.119778      1.316341
  C       1.383889      2.887111      3.507562
  H       0.102718      1.598624     -0.199525
  H      -0.844562      1.600002      2.728153
  H      -0.818852      0.148612     -1.693591
  H      -2.390070     -1.682795     -2.241305
  H      -3.953776     -2.484609     -0.519868
  H      -4.000028     -1.498530      1.729901
  H      -2.448496      0.309553      2.306690
  H       0.674645      3.650405      3.821638
  H       1.275068      2.039881      4.184869
  H       2.399835      3.264699      3.557430
  Br      1.037106     -1.876550      1.542118
  Br      2.334330     -0.860757      3.549243
  Br      3.584404      0.132666      5.481948
25
Coordinates from ORCA-job orca_input E -132.602582930925
  Br     -1.344197      3.703735      1.485924
  C      -0.572315      1.311911      0.600833
  C      -0.374008      2.039163      1.858680
  C       1.083828      2.421425      2.129004
  O       1.895834      2.322832      1.246466
  C      -1.517223      0.350633      0.341189
  C      -1.521573     -0.219574     -0.957764
  C      -2.390469     -1.231340     -1.260744
  C      -3.270215     -1.680834     -0.282649
  C      -3.296931     -1.128266      0.999161
  C      -2.431588     -0.123066      1.317745
  C       1.385756      2.889793      3.506172
  H       0.102973      1.597799     -0.198422
  H      -0.843285      1.597137      2.729239
  H      -0.822162      0.150321     -1.694846
  H      -2.395412     -1.677714     -2.243895
  H      -3.955419     -2.483885     -0.520631
  H      -3.995936     -1.503448      1.731701
  H      -2.443679      0.303750      2.309165
  H       0.681767      3.661222      3.812153
  H       1.269733      2.048436      4.189435
  H       2.404055      3.261253      3.554467
  Br      1.044778     -1.869827      1.534203
  Br      2.331031     -0.859072      3.547896
  Br      3.569288      0.131496      5.491679
25
Coordinates from ORCA-job orca_input E -132.602591439708
  Br     -1.343313      3.702261      1.490434
  C      -0.572146      1.310280      0.601770
  C      -0.372983      2.036973      1.859880
  C       1.085570      2.418704      2.128854
  O       1.896746      2.317790      1.245856
  C      -1.516905      0.349318      0.341617
  C      -1.523670     -0.218664     -0.958282
  C      -2.393608     -1.229119     -1.262215
  C      -3.271418     -1.680733     -0.283119
  C      -3.295009     -1.131297      1.000041
  C      -2.429382     -0.126526      1.319175
  C       1.387937      2.891923      3.504432
  H       0.103030      1.597139     -0.197250
  H      -0.841689      1.594883      2.730711
  H      -0.824846      0.152004     -1.695561
  H      -2.400587     -1.673366     -2.246299
  H      -3.957276     -2.483150     -0.521364
  H      -3.991870     -1.508572      1.733574
  H      -2.438842      0.297846      2.311633
  H       0.688722      3.670682      3.802767
  H       1.264460      2.055956      4.192822
  H       2.408327      3.257599      3.552586
  Br      1.051794     -1.862965      1.525386
  Br      2.328129     -0.855978      3.547527
  Br      3.553459      0.130892      5.501187
25
Coordinates from ORCA-job orca_input E -132.602600844443
  Br     -1.342377      3.699786      1.495719
  C      -0.571898      1.308243      0.603033
  C      -0.371365      2.034118      1.861572
  C       1.088320      2.415193      2.128480
  O       1.898500      2.310856      1.244961
  C      -1.516727      0.347590      0.342332
  C      -1.526640     -0.217227     -0.959060
  C      -2.397984     -1.226099     -1.264154
  C      -3.273129     -1.680704     -0.283695
  C      -3.292734     -1.135505      1.001294
  C      -2.426514     -0.131415      1.321090
  C       1.391160      2.894759      3.501769
  H       0.102631      1.596430     -0.196085
  H      -0.838686      1.591739      2.733020
  H      -0.828560      0.155048     -1.696266
  H      -2.407541     -1.668067     -2.249222
  H      -3.959788     -2.482340     -0.522250
  H      -3.986720     -1.515598      1.736107
  H      -2.432600      0.289801      2.314899
  H       0.698500      3.683068      3.790320
  H       1.256712      2.065982      4.196583
  H       2.414440      3.252067      3.551085
  Br      1.061789     -1.853074      1.512259
  Br      2.324270     -0.850745      3.548175
  Br      3.531570      0.129975      5.514194
25
Coordinates from ORCA-job orca_input E -132.602610855293
  Br     -1.341349      3.697137      1.498733
  C      -0.571506      1.306423      0.604097
  C      -0.369585      2.031677      1.862974
  C       1.091146      2.412087      2.127983
  O       1.900568      2.304530      1.244154
  C      -1.516673      0.345935      0.343199
  C      -1.529666     -0.215593     -0.959782
  C      -2.402293     -1.223184     -1.265658
  C      -3.274603     -1.680867     -0.283833
  C      -3.290423     -1.139795      1.002937
  C      -2.423495     -0.136341      1.323085
  C       1.394379      2.897141      3.499117
  H       0.101820      1.595794     -0.195620
  H      -0.835375      1.589085      2.735158
  H      -0.832597      0.158811     -1.696865
  H      -2.414432     -1.663224     -2.251555
  H      -3.961929     -2.481854     -0.522640
  H      -3.981573     -1.522627      1.738996
  H      -2.426391      0.281923      2.318160
  H       0.708398      3.694533      3.778765
  H       1.248310      2.075247      4.199610
  H       2.420592      3.245525      3.550687
  Br      1.072087     -1.842008      1.497693
  Br      2.319926     -0.844764      3.549682
  Br      3.509296      0.128285      5.527084
25
Coordinates from ORCA-job orca_input E -132.602629130077
  Br     -1.339971      3.692388      1.499869
  C      -0.570277      1.303665      0.605221
  C      -0.366548      2.028168      1.864468
  C       1.095049      2.408327      2.127424
  O       1.904009      2.296545      1.243663
  C      -1.516451      0.343469      0.344459
  C      -1.534193     -0.213060     -0.960798
  C      -2.408631     -1.219162     -1.267178
  C      -3.276653     -1.681136     -0.283446
  C      -3.286991     -1.145750      1.005733
  C      -2.418782     -0.143252      1.325966
  C       1.398477      2.900309      3.495829
  H       0.100824      1.594491     -0.195829
  H      -0.830352      1.585141      2.737531
  H      -0.839366      0.164754     -1.698233
  H      -2.424899     -1.656197     -2.254361
  H      -3.964926     -2.481219     -0.522571
  H      -3.974323     -1.532148      1.743477
  H      -2.417197      0.270897      2.322787
  H       0.722383      3.710219      3.763768
  H       1.235397      2.087989      4.203609
  H       2.428959      3.235164      3.551113
  Br      1.088400     -1.824933      1.476129
  Br      2.313155     -0.836111      3.552152
  Br      3.477539      0.125322      5.545376
25
Coordinates from ORCA-job orca_input E -132.602648492979
  Br     -1.337949      3.684875      1.499697
  C      -0.567859      1.299558      0.606254
  C      -0.361696      2.022831      1.866021
  C       1.100296      2.403505      2.126868
  O       1.909214      2.286048      1.243710
  C      -1.515895      0.339971      0.346046
  C      -1.540959     -0.209299     -0.962173
  C      -2.417738     -1.213821     -1.268526
  C      -3.279284     -1.681738     -0.282047
  C      -3.281578     -1.154003      1.010250
  C      -2.411570     -0.152672      1.330094
  C       1.403715      2.904618      3.491824
  H       0.099884      1.592342     -0.196871
  H      -0.823220      1.578886      2.739855
  H      -0.850466      0.173379     -1.701110
  H      -2.440458     -1.645867     -2.257796
  H      -3.968807     -2.480653     -0.521463
  H      -3.963661     -1.545090      1.750361
  H      -2.403541      0.255670      2.329295
  H       0.742995      3.732421      3.743506
  H       1.215909      2.106235      4.209229
  H       2.440399      3.218758      3.552099
  Br      1.113814     -1.798275      1.444632
  Br      2.302303     -0.824190      3.554858
  Br      3.430782      0.120391      5.571547
25
Coordinates from ORCA-job orca_input E -132.602666406999
  Br     -1.335834      3.678679      1.496652
  C      -0.565405      1.296057      0.606306
  C      -0.357428      2.018589      1.866214
  C       1.104116      2.400487      2.126246
  O       1.913669      2.278871      1.244264
  C      -1.515180      0.337025      0.347165
  C      -1.547122     -0.206107     -0.963221
  C      -2.425536     -1.209656     -1.268722
  C      -3.281125     -1.682459     -0.279714
  C      -3.276186     -1.160718      1.014959
  C      -2.404749     -0.160144      1.333844
  C       1.407086      2.908240      3.488863
  H       0.099304      1.590230     -0.198778
  H      -0.817945      1.574182      2.740352
  H      -0.861505      0.180560     -1.704558
  H      -2.454339     -1.636819     -2.259979
  H      -3.971627     -2.480531     -0.519109
  H      -3.953843     -1.555406      1.757204
  H      -2.390989      0.243360      2.334943
  H       0.760386      3.751106      3.727061
  H       1.197778      2.121851      4.213383
  H       2.449013      3.203462      3.553654
  Br      1.138610     -1.773312      1.416341
  Br      2.293250     -0.815673      3.557387
  Br      3.390229      0.112005      5.595402
25
Coordinates from ORCA-job orca_input E -132.602692734517
  Br     -1.332361      3.667123      1.493693
  C      -0.559942      1.288991      0.606051
  C      -0.349224      2.010005      1.866443
  C       1.110893      2.395910      2.125538
  O       1.921733      2.269115      1.245333
  C      -1.513131      0.331367      0.348443
  C      -1.558053     -0.201497     -0.965204
  C      -2.440227     -1.203061     -1.269159
  C      -3.285632     -1.683430     -0.275741
  C      -3.267203     -1.171693      1.022534
  C      -2.392787     -0.172846      1.339819
  C       1.412572      2.914109      3.484883
  H       0.100643      1.585456     -0.201588
  H      -0.808574      1.564523      2.740605
  H      -0.881174      0.190920     -1.711475
  H      -2.480288     -1.621008     -2.263976
  H      -3.978475     -2.479579     -0.514753
  H      -3.937492     -1.572031      1.768431
  H      -2.368496      0.221996      2.344106
  H       0.791301      3.782107      3.700067
  H       1.167308      2.148505      4.220188
  H       2.462801      3.176494      3.557021
  Br      1.185090     -1.728112      1.369598
  Br      2.277923     -0.800368      3.559520
  Br      3.317424      0.100882      5.635784
25
Coordinates from ORCA-job orca_input E -132.602721964710
  Br     -1.327066      3.662184      1.484532
  C      -0.556193      1.284629      0.603521
  C      -0.343562      2.005960      1.863056
  C       1.114687      2.395054      2.122950
  O       1.927090      2.267304      1.244792
  C      -1.511631      0.327767      0.349169
  C      -1.567603     -0.198042     -0.965997
  C      -2.450891     -1.199220     -1.266554
  C      -3.286734     -1.685846     -0.268437
  C      -3.257192     -1.180227      1.032075
  C      -2.381671     -0.181267      1.345970
  C       1.415241      2.916824      3.481535
  H       0.100471      1.582087     -0.206853
  H      -0.804450      1.562056      2.737104
  H      -0.899973      0.198640     -1.718255
  H      -2.500210     -1.609780     -2.264050
  H      -3.980389     -2.481771     -0.505774
  H      -3.920703     -1.584678      1.781826
  H      -2.348559      0.207652      2.352248
  H       0.817450      3.805480      3.678615
  H       1.138412      2.168008      4.222324
  H       2.471899      3.148654      3.562205
  Br      1.229500     -1.680829      1.322901
  Br      2.265656     -0.791185      3.562512
  Br      3.251050      0.074424      5.674746
25
Coordinates from ORCA-job orca_input E -132.602769167739
  Br     -1.323603      3.648200      1.484450
  C      -0.547221      1.274743      0.601784
  C      -0.332477      1.994989      1.861947
  C       1.123566      2.392476      2.121287
  O       1.937377      2.265785      1.243738
  C      -1.507474      0.319700      0.349512
  C      -1.581421     -0.195404     -0.968391
  C      -2.471717     -1.193281     -1.266366
  C      -3.295085     -1.686987     -0.262361
  C      -3.247005     -1.192398      1.041164
  C      -2.366490     -0.196461      1.352492
  C       1.421481      2.922030      3.478298
  H       0.106365      1.574658     -0.210331
  H      -0.792815      1.550286      2.735684
  H      -0.924132      0.205772     -1.727385
  H      -2.535761     -1.592883     -2.267469
  H      -3.992988     -2.479796     -0.497579
  H      -3.901516     -1.602662      1.795722
  H      -2.319048      0.181923      2.362071
  H       0.858396      3.838678      3.648381
  H       1.102231      2.198783      4.227022
  H       2.485560      3.112798      3.570391
  Br      1.298398     -1.614418      1.264939
  Br      2.250288     -0.770455      3.562928
  Br      3.149722      0.057803      5.724231
25
Coordinates from ORCA-job orca_input E -132.602848843169
  Br     -1.324253      3.627382      1.479947
  C      -0.532625      1.257661      0.597799
  C      -0.318494      1.980021      1.856449
  C       1.130486      2.395967      2.117837
  O       1.945375      2.291061      1.238637
  C      -1.499464      0.308035      0.348003
  C      -1.594453     -0.200033     -0.969928
  C      -2.496669     -1.188343     -1.265634
  C      -3.311346     -1.682879     -0.256344
  C      -3.242299     -1.196187      1.048180
  C      -2.352245     -0.207653      1.356967
  C       1.422113      2.919958      3.480186
  H       0.122306      1.556798     -0.213712
  H      -0.781264      1.537631      2.729578
  H      -0.945303      0.198172     -1.737610
  H      -2.575828     -1.576136     -2.270247
  H      -4.017856     -2.469072     -0.487901
  H      -3.891210     -1.607147      1.807356
  H      -2.289127      0.161567      2.368862
  H       0.884926      3.855256      3.632288
  H       1.074606      2.210749      4.228372
  H       2.490250      3.081327      3.584819
  Br      1.386380     -1.544563      1.216176
  Br      2.252579     -0.744389      3.562151
  Br      3.058044      0.048697      5.773928
25
Coordinates from ORCA-job orca_input E -132.602913649378
  Br     -1.326584      3.620525      1.486197
  C      -0.529842      1.252181      0.596851
  C      -0.313662      1.974394      1.855082
  C       1.134426      2.397216      2.113012
  O       1.946599      2.302191      1.229761
  C      -1.499225      0.304703      0.348553
  C      -1.599449     -0.201809     -0.969108
  C      -2.503892     -1.188615     -1.263358
  C      -3.315360     -1.684679     -0.251004
  C      -3.240600     -1.199297      1.053975
  C      -2.348870     -0.211736      1.360666
  C       1.427451      2.917734      3.476833
  H       0.124105      1.552584     -0.214963
  H      -0.775163      1.532976      2.729189
  H      -0.952702      0.195751     -1.739342
  H      -2.585971     -1.573758     -2.268730
  H      -4.023120     -2.470399     -0.480191
  H      -3.886052     -1.611224      1.815655
  H      -2.280836      0.155044      2.373103
  H       0.912947      3.867654      3.616956
  H       1.057360      2.219722      4.225317
  H       2.498371      3.054036      3.588215
  Br      1.434096     -1.488718      1.179467
  Br      2.247297     -0.730306      3.561049
  Br      2.993304      0.027710      5.802976
25
Coordinates from ORCA-job orca_input E -132.602590324510
  Br     -1.366612      3.584261      1.515685
  C      -0.537802      1.224870      0.607734
  C      -0.317112      1.951575      1.857493
  C       1.121147      2.404137      2.094766
  O       1.908075      2.373858      1.187525
  C      -1.506200      0.296832      0.354210
  C      -1.582308     -0.223860     -0.957727
  C      -2.487541     -1.187408     -1.267128
  C      -3.333411     -1.664751     -0.264425
  C      -3.280961     -1.162692      1.039973
  C      -2.381983     -0.189205      1.356397
  C       1.426188      2.889625      3.468888
  H       0.122569      1.518998     -0.199733
  H      -0.767466      1.518256      2.740826
  H      -0.907421      0.149055     -1.716929
  H      -2.540305     -1.580734     -2.271153
  H      -4.048361     -2.442599     -0.497709
  H      -3.946241     -1.554303      1.795456
  H      -2.330576      0.191859      2.364931
  H       0.882330      3.818038      3.638747
  H       1.106157      2.155392      4.206611
  H       2.491588      3.066590      3.568636
  Br      1.488881     -1.472770      1.207383
  Br      2.319491     -0.701687      3.573500
  Br      3.062504      0.050542      5.822202
25
Coordinates from ORCA-job orca_input E -132.603054597726
  Br     -1.351184      3.586776      1.502664
  C      -0.526109      1.228779      0.605505
  C      -0.310142      1.954917      1.860739
  C       1.133184      2.402774      2.104026
  O       1.930824      2.349043      1.205172
  C      -1.500126      0.291037      0.353446
  C      -1.592805     -0.216476     -0.964797
  C      -2.508347     -1.184502     -1.268843
  C      -3.338472     -1.669262     -0.262559
  C      -3.269014     -1.184008      1.044643
  C      -2.364091     -0.211582      1.358356
  C       1.431914      2.907256      3.471146
  H       0.129285      1.526700     -0.205783
  H      -0.758711      1.513507      2.741683
  H      -0.928345      0.170323     -1.725502
  H      -2.581235     -1.572415     -2.273847
  H      -4.056758     -2.443987     -0.496243
  H      -3.925291     -1.585807      1.802411
  H      -2.300058      0.157249      2.370607
  H       0.906880      3.850125      3.620707
  H       1.076583      2.197387      4.215397
  H       2.500242      3.057768      3.582509
  Br      1.500215     -1.459165      1.179578
  Br      2.289876     -0.699176      3.578842
  Br      3.006317      0.046620      5.826302
25
Coordinates from ORCA-job orca_input E -132.603172543952
  Br     -1.353863      3.576093      1.517717
  C      -0.523744      1.224832      0.609024
  C      -0.305191      1.947805      1.866511
  C       1.139415      2.400035      2.101902
  O       1.931520      2.350826      1.197200
  C      -1.501487      0.287070      0.356710
  C      -1.595254     -0.216190     -0.963603
  C      -2.512756     -1.186134     -1.267295
  C      -3.341220     -1.672891     -0.260969
  C      -3.270992     -1.191337      1.047422
  C      -2.364490     -0.219253      1.360944
  C       1.444736      2.907241      3.466431
  H       0.128190      1.525392     -0.204156
  H      -0.745018      1.499605      2.748625
  H      -0.930926      0.174513     -1.722168
  H      -2.587232     -1.574493     -2.272052
  H      -4.059732     -2.447141     -0.495593
  H      -3.926428     -1.594890      1.804865
  H      -2.300685      0.147817      2.373992
  H       0.946695      3.866718      3.604084
  H       1.064466      2.216722      4.216075
  H       2.516936      3.029884      3.579925
  Br      1.532140     -1.399131      1.144913
  Br      2.271710     -0.679252      3.572130
  Br      2.937842      0.040039      5.843525
25
Coordinates from ORCA-job orca_input E -132.603310433984
  Br     -1.366095      3.547232      1.536986
  C      -0.515613      1.210109      0.615963
  C      -0.297112      1.931329      1.875283
  C       1.145131      2.401289      2.098712
  O       1.926707      2.373342      1.183653
  C      -1.500804      0.275106      0.361720
  C      -1.596420     -0.222697     -0.960754
  C      -2.522086     -1.187650     -1.266718
  C      -3.354734     -1.670395     -0.264183
  C      -3.283800     -1.194140      1.045205
  C      -2.369475     -0.228896      1.361540
  C       1.459655      2.907658      3.461598
  H       0.134381      1.511824     -0.198514
  H      -0.721643      1.471140      2.759019
  H      -0.927177      0.167684     -1.714770
  H      -2.598779     -1.576384     -2.271242
  H      -4.078655     -2.438435     -0.502751
  H      -3.944408     -1.594747      1.799550
  H      -2.307477      0.136745      2.375455
  H       0.987649      3.881916      3.589769
  H       1.059268      2.237373      4.218269
  H       2.534812      3.005921      3.574540
  Br      1.592715     -1.320298      1.109477
  Br      2.267375     -0.648247      3.569631
  Br      2.871213      0.037099      5.868722
25
Coordinates from ORCA-job orca_input E -132.603443557357
  Br     -1.384660      3.516259      1.565463
  C      -0.513656      1.196045      0.627467
  C      -0.294673      1.914160      1.888286
  C       1.144310      2.400957      2.094549
  O       1.909479      2.395953      1.166305
  C      -1.504019      0.266032      0.368666
  C      -1.589748     -0.230082     -0.954855
  C      -2.517727     -1.191930     -1.265922
  C      -3.362119     -1.667028     -0.270988
  C      -3.302229     -1.189808      1.038379
  C      -2.384696     -0.229078      1.360500
  C       1.475401      2.905778      3.453977
  H       0.135413      1.497037     -0.187914
  H      -0.697704      1.437290      2.773529
  H      -0.909880      0.157073     -1.700650
  H      -2.588523     -1.586422     -2.268741
  H      -4.088221     -2.430846     -0.516647
  H      -3.974148     -1.583007      1.786431
  H      -2.334883      0.142135      2.373443
  H       1.020172      3.888366      3.582673
  H       1.070064      2.251047      4.220919
  H       2.552928      2.992975      3.555779
  Br      1.624030     -1.255135      1.089412
  Br      2.265833     -0.620890      3.565169
  Br      2.843886      0.036997      5.880930
25
Coordinates from ORCA-job orca_input E -132.603596330857
  Br     -1.400485      3.486332      1.583024
  C      -0.501805      1.175423      0.632806
  C      -0.286703      1.898195      1.892364
  C       1.145101      2.412955      2.087067
  O       1.894005      2.451208      1.146166
  C      -1.500982      0.251508      0.372882
  C      -1.586435     -0.246337     -0.949281
  C      -2.524834     -1.197728     -1.263300
  C      -3.380225     -1.662091     -0.272567
  C      -3.321288     -1.183263      1.036024
  C      -2.393830     -0.231624      1.360257
  C       1.486143      2.901156      3.450705
  H       0.151110      1.473369     -0.180399
  H      -0.675606      1.413328      2.779477
  H      -0.896495      0.130838     -1.691043
  H      -2.594523     -1.594112     -2.265454
  H      -4.113555     -2.417899     -0.521481
  H      -4.001736     -1.567634      1.781036
  H      -2.346008      0.142519      2.372395
  H       1.046089      3.891228      3.577368
  H       1.071746      2.252885      4.217708
  H       2.564162      2.974883      3.552750
  Br      1.691334     -1.163853      1.056194
  Br      2.276583     -0.589658      3.565964
  Br      2.792867      0.012250      5.905498
25
Coordinates from ORCA-job orca_input E -132.603780841431
  Br     -1.433510      3.441434      1.607228
  C      -0.493846      1.142160      0.646322
  C      -0.288964      1.874609      1.900949
  C       1.126813      2.430902      2.078478
  O       1.847096      2.528378      1.122437
  C      -1.497329      0.233236      0.377981
  C      -1.569481     -0.274223     -0.938585
  C      -2.514816     -1.205850     -1.263369
  C      -3.396861     -1.644548     -0.284353
  C      -3.350084     -1.152011      1.019578
  C      -2.414592     -0.214236      1.354359
  C       1.486573      2.900330      3.444364
  H       0.169391      1.429287     -0.161646
  H      -0.653535      1.374224      2.789670
  H      -0.857644      0.077554     -1.672542
  H      -2.575383     -1.609718     -2.263097
  H      -4.139357     -2.388443     -0.541756
  H      -4.052291     -1.512097      1.756800
  H      -2.378895      0.175128      2.361345
  H       1.027583      3.878493      3.596460
  H       1.104407      2.238963      4.216836
  H       2.562186      3.007380      3.527195
  Br      1.714837     -1.123549      1.058497
  Br      2.319603     -0.572383      3.577909
  Br      2.852729     -0.021140      5.915099
25
Coordinates from ORCA-job orca_input E -132.604033913783
  Br     -1.445861      3.425215      1.630168
  C      -0.482975      1.132521      0.646770
  C      -0.280333      1.867886      1.901806
  C       1.129824      2.442507      2.073051
  O       1.840539      2.561852      1.111315
  C      -1.493641      0.226276      0.380151
  C      -1.567108     -0.284994     -0.934155
  C      -2.518375     -1.214801     -1.257738
  C      -3.404146     -1.648246     -0.278235
  C      -3.357084     -1.151407      1.024094
  C      -2.416350     -0.216708      1.356883
  C       1.496853      2.902712      3.440991
  H       0.180755      1.421636     -0.159894
  H      -0.635619      1.361989      2.790260
  H      -0.853163      0.060530     -1.669242
  H      -2.578305     -1.618562     -2.257536
  H      -4.148723     -2.390338     -0.534333
  H      -4.061420     -1.507892      1.761164
  H      -2.379121      0.173179      2.363463
  H       1.064846      3.895336      3.579336
  H       1.090952      2.253774      4.212169
  H       2.575346      2.977730      3.526445
  Br      1.755399     -1.030713      1.013873
  Br      2.307322     -0.555604      3.576122
  Br      2.775019     -0.070001      5.929232
25
Coordinates from ORCA-job orca_input E -132.604417131481
  Br     -1.463221      3.397744      1.659262
  C      -0.460407      1.117568      0.645021
  C      -0.264072      1.857037      1.902558
  C       1.134840      2.458763      2.072426
  O       1.843773      2.590907      1.109721
  C      -1.481005      0.214997      0.379021
  C      -1.566418     -0.299164     -0.932531
  C      -2.530142     -1.223929     -1.254409
  C      -3.415250     -1.649146     -0.271254
  C      -3.357362     -1.149241      1.028506
  C      -2.403698     -0.223931      1.358433
  C       1.501114      2.919595      3.441233
  H       0.198794      1.414108     -0.162828
  H      -0.608185      1.342925      2.789649
  H      -0.856114      0.038812     -1.674795
  H      -2.596997     -1.622296     -2.255908
  H      -4.167027     -2.385617     -0.521745
  H      -4.061320     -1.500962      1.768384
  H      -2.354438      0.160636      2.365764
  H       1.097177      3.926297      3.561657
  H       1.065854      2.285021      4.208339
  H       2.582595      2.956478      3.532459
  Br      1.782764     -0.944267      0.962702
  Br      2.285020     -0.546665      3.579384
  Br      2.688354     -0.121790      5.935110
25
Coordinates from ORCA-job orca_input E -132.605068490670
  Br     -1.480967      3.360066      1.690570
  C      -0.427115      1.095355      0.642116
  C      -0.242270      1.841078      1.901328
  C       1.137043      2.476602      2.073401
  O       1.848035      2.619137      1.112791
  C      -1.460645      0.202342      0.375843
  C      -1.561174     -0.314363     -0.931623
  C      -2.539057     -1.231651     -1.252063
  C      -3.423140     -1.645374     -0.262004
  C      -3.350554     -1.140119      1.034651
  C      -2.379620     -0.228676      1.360361
  C       1.495369      2.941444      3.443721
  H       0.221386      1.401473     -0.170736
  H      -0.571667      1.317677      2.787806
  H      -0.858337      0.014671     -1.685262
  H      -2.615081     -1.622539     -2.255773
  H      -4.185275     -2.374079     -0.502996
  H      -4.052950     -1.482925      1.780401
  H      -2.314117      0.149068      2.368376
  H       1.110884      3.956397      3.555412
  H       1.037387      2.314518      4.202816
  H       2.578568      2.947493      3.542290
  Br      1.764030     -0.877018      0.908683
  Br      2.248324     -0.543540      3.581418
  Br      2.615573     -0.163161      5.924635
25
Coordinates from ORCA-job orca_input E -132.606079017212
  Br     -1.495594      3.297105      1.705624
  C      -0.373378      1.050540      0.641287
  C      -0.209799      1.809109      1.900271
  C       1.137256      2.499199      2.079793
  O       1.854398      2.656188      1.124434
  C      -1.427093      0.173959      0.371390
  C      -1.556883     -0.335968     -0.933410
  C      -2.561486     -1.229895     -1.257599
  C      -3.446100     -1.625987     -0.260665
  C      -3.344688     -1.124628      1.035128
  C      -2.339628     -0.245492      1.358771
  C       1.474257      2.980803      3.450798
  H       0.253161      1.372628     -0.182287
  H      -0.524019      1.280089      2.789661
  H      -0.864944     -0.016675     -1.701523
  H      -2.654976     -1.603700     -2.266221
  H      -4.231609     -2.332779     -0.491217
  H      -4.046874     -1.452518      1.787892
  H      -2.246796      0.115652      2.369793
  H       1.087137      3.993781      3.564075
  H       1.010680      2.350398      4.201280
  H       2.558691      2.978217      3.558825
  Br      1.728521     -0.848991      0.862663
  Br      2.228504     -0.547477      3.600725
  Br      2.585892     -0.179677      5.916673
25
Coordinates from ORCA-job orca_input E -132.607336716232
  Br     -1.503401      3.229934      1.714200
  C      -0.317179      0.999183      0.642597
  C      -0.173821      1.771824      1.900063
  C       1.136428      2.518339      2.086291
  O       1.858525      2.689799      1.135389
  C      -1.394155      0.142355      0.368606
  C      -1.553085     -0.356102     -0.934940
  C      -2.583179     -1.223772     -1.265427
  C      -3.469949     -1.602793     -0.262277
  C      -3.340507     -1.108628      1.034410
  C      -2.299924     -0.266376      1.356652
  C       1.450019      3.021073      3.456449
  H       0.277511      1.343204     -0.195125
  H      -0.476119      1.243838      2.795850
  H      -0.873904     -0.043690     -1.717531
  H      -2.690870     -1.577701     -2.279684
  H      -4.280151     -2.284622     -0.482215
  H      -4.043087     -1.420715      1.793499
  H      -2.182579      0.075324      2.371492
  H       1.054591      4.029092      3.574693
  H       0.989278      2.382923      4.198621
  H       2.535637      3.014713      3.572722
  Br      1.686847     -0.829323      0.820926
  Br      2.216892     -0.551856      3.626345
  Br      2.570813     -0.182145      5.914553
25
Coordinates from ORCA-job orca_input E -132.608834489593
  Br     -1.512715      3.157410      1.720227
  C      -0.253473      0.944807      0.641027
  C      -0.135409      1.733821      1.897262
  C       1.135267      2.538295      2.093372
  O       1.863355      2.728428      1.148671
  C      -1.357205      0.110507      0.363736
  C      -1.551408     -0.376841     -0.935630
  C      -2.610732     -1.216769     -1.271725
  C      -3.496726     -1.577732     -0.261283
  C      -3.333664     -1.091976      1.034208
  C      -2.256312     -0.287098      1.351790
  C       1.422717      3.060323      3.463567
  H       0.309948      1.311042     -0.209067
  H      -0.425788      1.205580      2.797953
  H      -0.885680     -0.072980     -1.733204
  H      -2.737070     -1.550013     -2.290737
  H      -4.331913     -2.232746     -0.468645
  H      -4.034547     -1.388406      1.801203
  H      -2.110484      0.033824      2.368833
  H       1.018708      4.063496      3.585840
  H       0.962308      2.414252      4.196291
  H       2.509612      3.051132      3.590764
  Br      1.653384     -0.804639      0.779060
  Br      2.204834     -0.555713      3.648859
  Br      2.547621     -0.184125      5.913788
25
Coordinates from ORCA-job orca_input E -132.610921439441
  Br     -1.518876      3.089549      1.727904
  C      -0.190520      0.890766      0.638328
  C      -0.096402      1.697859      1.893210
  C       1.134131      2.556375      2.099587
  O       1.870987      2.759114      1.162525
  C      -1.324367      0.083435      0.357943
  C      -1.551576     -0.393481     -0.936666
  C      -2.634051     -1.209834     -1.277351
  C      -3.517403     -1.554707     -0.258032
  C      -3.323056     -1.075019      1.035494
  C      -2.214065     -0.304353      1.347077
  C       1.393959      3.099231      3.468872
  H       0.332600      1.284779     -0.225118
  H      -0.376185      1.171404      2.799822
  H      -0.901921     -0.096642     -1.750587
  H      -2.775621     -1.523124     -2.300579
  H      -4.374002     -2.186124     -0.450542
  H      -4.020174     -1.356599      1.811581
  H      -2.041552     -0.003636      2.365340
  H       0.982003      4.097631      3.595108
  H       0.932382      2.444996      4.190376
  H       2.481901      3.084590      3.608930
  Br      1.612357     -0.786288      0.740408
  Br      2.190010     -0.568672      3.665622
  Br      2.524071     -0.187372      5.916910
25
Coordinates from ORCA-job orca_input E -132.613600204980
  Br     -1.521991      3.015833      1.733950
  C      -0.122033      0.832869      0.635015
  C      -0.054640      1.659708      1.888408
  C       1.131305      2.573606      2.105029
  O       1.875521      2.793086      1.175291
  C      -1.289520      0.057277      0.352641
  C      -1.551313     -0.409446     -0.935743
  C      -2.657422     -1.202546     -1.281273
  C      -3.538515     -1.530446     -0.253377
  C      -3.313651     -1.056020      1.037204
  C      -2.172507     -0.320146      1.341128
  C       1.363368      3.135077      3.473259
  H       0.352447      1.260202     -0.241479
  H      -0.323339      1.136144      2.801330
  H      -0.918622     -0.119811     -1.766007
  H      -2.813388     -1.495570     -2.308291
  H      -4.415833     -2.137470     -0.430375
  H      -4.007872     -1.322295      1.821390
  H      -1.973986     -0.039785      2.359617
  H       0.940807      4.127399      3.604877
  H       0.902106      2.471113      4.182205
  H       2.452504      3.115605      3.626012
  Br      1.575137     -0.763800      0.700870
  Br      2.178159     -0.578843      3.686261
  Br      2.497910     -0.187861      5.918217
25
Coordinates from ORCA-job orca_input E -132.615507299743
  Br     -1.507120      2.935214      1.726838
  C      -0.025648      0.753981      0.631544
  C      -0.002051      1.609860      1.884119
  C       1.126928      2.584939      2.112203
  O       1.874765      2.830819      1.188073
  C      -1.248116      0.023400      0.348025
  C      -1.557805     -0.425206     -0.934752
  C      -2.693056     -1.187712     -1.285758
  C      -3.570503     -1.497618     -0.252042
  C      -3.308801     -1.036191      1.034553
  C      -2.129415     -0.343896      1.330718
  C       1.323515      3.166263      3.477613
  H       0.367407      1.235656     -0.260558
  H      -0.263618      1.096125      2.806948
  H      -0.945667     -0.141149     -1.782725
  H      -2.865392     -1.454359     -2.317267
  H      -4.473283     -2.071508     -0.412003
  H      -4.000997     -1.287014      1.825742
  H      -1.907201     -0.090173      2.350901
  H       0.875720      4.145359      3.618391
  H       0.875001      2.486545      4.173028
  H       2.414265      3.153734      3.643341
  Br      1.563838     -0.742392      0.657403
  Br      2.192627     -0.571649      3.734135
  Br      2.479237     -0.159144      5.927688
25
Coordinates from ORCA-job orca_input E -132.614814198147
  Br     -1.532417      2.889484      1.745791
  C      -0.023425      0.740532      0.628120
  C       0.009990      1.596783      1.876898
  C       1.123752      2.596695      2.113495
  O       1.882565      2.840268      1.198364
  C      -1.231824      0.017675      0.343420
  C      -1.546154     -0.430882     -0.930678
  C      -2.687599     -1.186630     -1.287742
  C      -3.564763     -1.489716     -0.242604
  C      -3.289709     -1.022883      1.042887
  C      -2.097878     -0.342982      1.329853
  C       1.312887      3.192330      3.478072
  H       0.377565      1.214426     -0.259307
  H      -0.244371      1.079078      2.798846
  H      -0.945352     -0.151016     -1.788184
  H      -2.864173     -1.445760     -2.320334
  H      -4.471737     -2.059086     -0.391952
  H      -3.974828     -1.263714      1.843465
  H      -1.855506     -0.096528      2.345749
  H       0.878878      4.176667      3.618529
  H       0.852355      2.513578      4.168308
  H       2.404458      3.163016      3.650328
  Br      1.484014     -0.733459      0.645144
  Br      2.145567     -0.604544      3.695699
  Br      2.452336     -0.179450      5.923994
25
Coordinates from ORCA-job orca_input E -132.616324021492
  Br     -1.519893      2.928030      1.769049
  C      -0.070273      0.765809      0.639211
  C      -0.015386      1.603712      1.894779
  C       1.131356      2.561554      2.114562
  O       1.887353      2.768415      1.191905
  C      -1.266746      0.021550      0.345751
  C      -1.554402     -0.413051     -0.941725
  C      -2.667934     -1.177106     -1.296639
  C      -3.550478     -1.496712     -0.265556
  C      -3.299680     -1.035043      1.023926
  C      -2.132939     -0.342921      1.332609
  C       1.329613      3.180474      3.462416
  H       0.310154      1.247147     -0.249051
  H      -0.273636      1.079192      2.813439
  H      -0.948856     -0.120590     -1.791273
  H      -2.827395     -1.446483     -2.329596
  H      -4.447987     -2.077945     -0.428277
  H      -3.988408     -1.283182      1.819317
  H      -1.934073     -0.086540      2.357774
  H       0.888057      4.162191      3.598346
  H       0.889983      2.513801      4.183212
  H       2.421449      3.178789      3.619072
  Br      1.498854     -0.787652      0.662329
  Br      2.208611     -0.597988      3.720667
  Br      2.527286     -0.131570      5.979912
25
Coordinates from ORCA-job orca_input E -132.617962369395
  Br     -1.515174      2.905436      1.786952
  C      -0.037041      0.749826      0.633780
  C       0.000377      1.599448      1.897384
  C       1.137445      2.561038      2.108434
  O       1.896207      2.769729      1.187712
  C      -1.266795      0.025250      0.341806
  C      -1.561995     -0.414064     -0.949083
  C      -2.673709     -1.177334     -1.292041
  C      -3.548510     -1.487720     -0.260466
  C      -3.293329     -1.027587      1.025405
  C      -2.136359     -0.333378      1.337058
  C       1.316317      3.179345      3.455397
  H       0.301984      1.266015     -0.263669
  H      -0.231191      1.062444      2.817912
  H      -0.947206     -0.130671     -1.796509
  H      -2.844568     -1.451196     -2.321782
  H      -4.449869     -2.065433     -0.418806
  H      -3.982297     -1.272768      1.821254
  H      -1.931768     -0.078867      2.362310
  H       0.858222      4.154615      3.586744
  H       0.869255      2.516791      4.173262
  H       2.401592      3.188254      3.630452
  Br      1.513553     -0.781476      0.626350
  Br      2.212202     -0.597000      3.775918
  Br      2.507286     -0.146817      5.960387
25
Coordinates from ORCA-job orca_input E -132.619665454036
  Br     -1.501681      2.888350      1.793069
  C      -0.009065      0.730951      0.637004
  C       0.012575      1.581418      1.897420
  C       1.134612      2.562614      2.103091
  O       1.885399      2.802700      1.182480
  C      -1.250654      0.012539      0.344199
  C      -1.559017     -0.425498     -0.943617
  C      -2.691067     -1.173305     -1.292487
  C      -3.573903     -1.476951     -0.263948
  C      -3.309872     -1.022453      1.022326
  C      -2.135975     -0.339981      1.333899
  C       1.302427      3.175834      3.455608
  H       0.329669      1.251972     -0.261794
  H      -0.208300      1.039754      2.819100
  H      -0.934642     -0.147226     -1.784970
  H      -2.870506     -1.442069     -2.322297
  H      -4.482998     -2.040825     -0.426877
  H      -4.003981     -1.261506      1.816090
  H      -1.921574     -0.089253      2.357117
  H       0.833710      4.146655      3.587614
  H       0.862609      2.513455      4.176081
  H       2.386992      3.204967      3.634710
  Br      1.550695     -0.760803      0.620209
  Br      2.241973     -0.592289      3.764110
  Br      2.507206     -0.125169      5.978023
25
Coordinates from ORCA-job orca_input E -132.621905780272
  Br     -1.507591      2.865261      1.832389
  C      -0.017084      0.727673      0.643306
  C       0.012649      1.567848      1.902125
  C       1.135594      2.555595      2.090498
  O       1.882654      2.800895      1.168634
  C      -1.249568      0.009725      0.349919
  C      -1.544333     -0.426854     -0.935989
  C      -2.679807     -1.170572     -1.290597
  C      -3.577638     -1.473504     -0.269172
  C      -3.322103     -1.017977      1.021297
  C      -2.142948     -0.339567      1.336556
  C       1.302715      3.172790      3.444486
  H       0.306392      1.266452     -0.246935
  H      -0.181949      1.015679      2.822409
  H      -0.907192     -0.148200     -1.767521
  H      -2.854136     -1.440095     -2.321440
  H      -4.485097     -2.034758     -0.445456
  H      -4.025602     -1.252673      1.808694
  H      -1.929556     -0.085870      2.358918
  H       0.836936      4.146613      3.565407
  H       0.861261      2.519842      4.177412
  H       2.385952      3.214229      3.625499
  Br      1.528240     -0.747108      0.599067
  Br      2.254112     -0.605627      3.760257
  Br      2.512729     -0.105917      5.996396
25
Coordinates from ORCA-job orca_input E -132.625245666323
  Br     -1.498477      2.828212      1.895682
  C      -0.007995      0.714634      0.646904
  C       0.026993      1.546612      1.906107
  C       1.145767      2.542779      2.071747
  O       1.888414      2.802681      1.150909
  C      -1.257431      0.010268      0.356625
  C      -1.541545     -0.425974     -0.932243
  C      -2.677879     -1.165395     -1.286903
  C      -3.583249     -1.468845     -0.275389
  C      -3.332824     -1.018919      1.018274
  C      -2.159681     -0.337138      1.342594
  C       1.300234      3.159281      3.430100
  H       0.278993      1.294767     -0.228416
  H      -0.122077      0.979425      2.825260
  H      -0.884509     -0.150429     -1.750151
  H      -2.852427     -1.435664     -2.317961
  H      -4.487536     -2.028523     -0.469217
  H      -4.046329     -1.251621      1.797370
  H      -1.949309     -0.078545      2.365043
  H       0.839234      4.139243      3.520211
  H       0.847601      2.525047      4.177572
  H       2.377463      3.220193      3.623571
  Br      1.524291     -0.706976      0.554739
  Br      2.275051     -0.618420      3.778191
  Br      2.491855     -0.062810      6.025543
25
Coordinates from ORCA-job orca_input E -132.628737387935
  Br     -1.506189      2.789193      1.982923
  C      -0.029880      0.721083      0.654601
  C       0.032904      1.534790      1.920405
  C       1.161199      2.527199      2.056059
  O       1.896203      2.778174      1.130958
  C      -1.284431      0.017624      0.367436
  C      -1.537948     -0.415023     -0.929267
  C      -2.659316     -1.163546     -1.284597
  C      -3.574070     -1.477231     -0.287184
  C      -3.345162     -1.036109      1.013281
  C      -2.189666     -0.340839      1.350725
  C       1.324680      3.154546      3.408080
  H       0.214703      1.353053     -0.195898
  H      -0.061723      0.950992      2.833530
  H      -0.858554     -0.135105     -1.727202
  H      -2.820738     -1.438538     -2.316917
  H      -4.466861     -2.045736     -0.507162
  H      -4.068619     -1.276919      1.780718
  H      -1.995478     -0.074000      2.375454
  H       0.896971      4.153397      3.449708
  H       0.846028      2.559548      4.176826
  H       2.399178      3.207661      3.602112
  Br      1.493169     -0.651466      0.510422
  Br      2.268685     -0.644721      3.812220
  Br      2.459544     -0.034146      6.048929
25
Coordinates from ORCA-job orca_input E -132.631241215424
  Br     -1.493096      2.813880      2.034774
  C      -0.055534      0.742821      0.653979
  C       0.027687      1.545886      1.927571
  C       1.177326      2.518277      2.046715
  O       1.903301      2.761368      1.114862
  C      -1.312360      0.027973      0.372496
  C      -1.545134     -0.401463     -0.931756
  C      -2.648466     -1.167476     -1.281338
  C      -3.557795     -1.498372     -0.290322
  C      -3.340613     -1.070896      1.012561
  C      -2.209946     -0.350812      1.356284
  C       1.359446      3.143323      3.395874
  H       0.163639      1.414597     -0.175800
  H      -0.043332      0.956262      2.838335
  H      -0.851083     -0.114989     -1.713995
  H      -2.802479     -1.451031     -2.312748
  H      -4.437144     -2.081957     -0.526345
  H      -4.059730     -1.329870      1.777808
  H      -2.031758     -0.075112      2.383188
  H       0.977714      4.162415      3.390416
  H       0.847220      2.588893      4.174678
  H       2.432171      3.170126      3.593195
  Br      1.466454     -0.583118      0.476148
  Br      2.231237     -0.675401      3.848384
  Br      2.396903     -0.031444      6.061196
25
Coordinates from ORCA-job orca_input E -132.632506993709
  Br     -1.557018      2.721235      2.087301
  C      -0.078380      0.776110      0.649649
  C       0.036357      1.553506      1.935393
  C       1.199534      2.519947      2.047535
  O       1.920413      2.746949      1.108670
  C      -1.338941      0.039210      0.373008
  C      -1.552532     -0.389812     -0.937957
  C      -2.641496     -1.172570     -1.279652
  C      -3.552139     -1.513318     -0.294731
  C      -3.352173     -1.092735      1.008986
  C      -2.236440     -0.353989      1.354617
  C       1.402781      3.154066      3.387217
  H       0.123552      1.473393     -0.162849
  H       0.003366      0.937505      2.829212
  H      -0.847332     -0.103027     -1.709142
  H      -2.780444     -1.469325     -2.309617
  H      -4.419730     -2.110063     -0.542764
  H      -4.068675     -1.363414      1.772451
  H      -2.084846     -0.065672      2.384235
  H       1.072409      4.190306      3.341449
  H       0.857235      2.639669      4.171909
  H       2.474648      3.140174      3.587105
  Br      1.469337     -0.512609      0.462838
  Br      2.193287     -0.700813      3.885326
  Br      2.351857     -0.030843      6.075971
25
Coordinates from ORCA-job orca_input E -132.634192250949
  Br     -1.506596      2.855112      2.073663
  C      -0.107352      0.814553      0.638657
  C       0.010840      1.588357      1.930523
  C       1.207521      2.512050      2.054227
  O       1.917330      2.728779      1.104504
  C      -1.351377      0.044180      0.366984
  C      -1.567256     -0.372761     -0.946339
  C      -2.637527     -1.179907     -1.278538
  C      -3.531728     -1.549721     -0.289633
  C      -3.328018     -1.143846      1.013355
  C      -2.228303     -0.376388      1.350572
  C       1.445731      3.135959      3.391670
  H       0.080434      1.527993     -0.165033
  H      -0.063480      0.984711      2.829578
  H      -0.869696     -0.071183     -1.716937
  H      -2.773825     -1.486629     -2.306085
  H      -4.387616     -2.164359     -0.536712
  H      -4.022174     -1.439743      1.787942
  H      -2.090460     -0.084189      2.381747
  H       1.161521      4.185315      3.319828
  H       0.876727      2.654465      4.175809
  H       2.516585      3.079939      3.591765
  Br      1.426006     -0.456866      0.460210
  Br      2.128785     -0.729324      3.914593
  Br      2.288558     -0.042620      6.079812
25
Coordinates from ORCA-job orca_input E -132.635113845936
  Br     -1.503320      2.901009      2.049389
  C      -0.111100      0.841091      0.623275
  C      -0.005651      1.615145      1.918423
  C       1.206721      2.525330      2.055093
  O       1.918054      2.749029      1.105828
  C      -1.347899      0.050861      0.358003
  C      -1.569633     -0.375332     -0.951799
  C      -2.641675     -1.191458     -1.274120
  C      -3.525826     -1.566599     -0.276062
  C      -3.314920     -1.150944      1.023662
  C      -2.220483     -0.367272      1.349890
  C       1.454090      3.133987      3.398101
  H       0.101041      1.528884     -0.194625
  H      -0.099877      1.002849      2.812531
  H      -0.878059     -0.077036     -1.729519
  H      -2.786250     -1.511763     -2.296439
  H      -4.377437     -2.190855     -0.512270
  H      -3.999126     -1.447377      1.806723
  H      -2.082077     -0.065526      2.377537
  H       1.178500      4.186018      3.332860
  H       0.873490      2.655516      4.177750
  H       2.520937      3.063742      3.607716
  Br      1.435104     -0.427198      0.466069
  Br      2.098643     -0.761059      3.905111
  Br      2.271381     -0.107161      6.093033
25
Coordinates from ORCA-job orca_input E -132.635887474591
  Br     -1.500014      2.911248      2.015349
  C      -0.095423      0.860554      0.605869
  C      -0.010083      1.620019      1.906377
  C       1.207531      2.512559      2.066543
  O       1.916604      2.742931      1.112851
  C      -1.329381      0.050407      0.345286
  C      -1.579987     -0.366945     -0.959281
  C      -2.659192     -1.184008     -1.275927
  C      -3.528249     -1.578919     -0.269954
  C      -3.297270     -1.162763      1.028089
  C      -2.195850     -0.368808      1.340631
  C       1.464284      3.121941      3.410760
  H       0.101597      1.538736     -0.219719
  H      -0.138005      0.995678      2.785355
  H      -0.907968     -0.065680     -1.752957
  H      -2.816936     -1.506372     -2.295706
  H      -4.380291     -2.206809     -0.492301
  H      -3.970002     -1.463199      1.819913
  H      -2.049674     -0.066479      2.366115
  H       1.191080      4.174472      3.348558
  H       0.882503      2.648529      4.190809
  H       2.528905      3.040453      3.627372
  Br      1.431573     -0.405025      0.495414
  Br      2.067511     -0.758794      3.917178
  Br      2.261365     -0.069845      6.109536
25
Coordinates from ORCA-job orca_input E -132.636273371670
  Br     -1.507990      2.948293      1.981945
  C      -0.113688      0.889237      0.591939
  C      -0.030708      1.645350      1.890485
  C       1.205707      2.514771      2.060593
  O       1.907664      2.768485      1.104918
  C      -1.341932      0.062445      0.338707
  C      -1.578086     -0.364752     -0.965159
  C      -2.648450     -1.189627     -1.270819
  C      -3.514617     -1.591672     -0.259993
  C      -3.294943     -1.161569      1.037025
  C      -2.209975     -0.348264      1.342433
  C       1.475703      3.088411      3.416319
  H       0.100460      1.548956     -0.242113
  H      -0.179730      1.016817      2.762879
  H      -0.904622     -0.069827     -1.760310
  H      -2.800702     -1.526724     -2.286685
  H      -4.356013     -2.233952     -0.480707
  H      -3.965865     -1.460817      1.831079
  H      -2.072221     -0.029047      2.364551
  H       1.190437      4.138449      3.363407
  H       0.897932      2.595759      4.190179
  H       2.539639      3.015817      3.634671
  Br      1.435509     -0.390557      0.518341
  Br      2.064446     -0.763430      3.936747
  Br      2.296672     -0.088672      6.125727
25
Coordinates from ORCA-job orca_input E -132.636564429157
  Br     -1.520597      2.942761      1.962600
  C      -0.106589      0.881721      0.587738
  C      -0.034939      1.647616      1.884175
  C       1.201272      2.520570      2.058755
  O       1.908952      2.767808      1.111471
  C      -1.340945      0.062173      0.335397
  C      -1.576487     -0.364502     -0.966098
  C      -2.647010     -1.186000     -1.269965
  C      -3.511086     -1.586538     -0.256574
  C      -3.291666     -1.151864      1.039036
  C      -2.206739     -0.340962      1.340942
  C       1.464590      3.098130      3.412146
  H       0.109068      1.534541     -0.251047
  H      -0.185088      1.016326      2.755575
  H      -0.905693     -0.071508     -1.763794
  H      -2.802172     -1.520974     -2.286174
  H      -4.353044     -2.228918     -0.474861
  H      -3.963885     -1.446195      1.833924
  H      -2.062371     -0.022781      2.361930
  H       1.165087      4.144496      3.364541
  H       0.890864      2.597046      4.187568
  H       2.529636      3.036690      3.628335
  Br      1.424302     -0.402478      0.531726
  Br      2.067218     -0.782472      3.955164
  Br      2.341954     -0.130807      6.143652
25
Coordinates from ORCA-job orca_input E -132.636948028561
  Br     -1.522447      2.924459      1.942040
  C      -0.090355      0.855139      0.595186
  C      -0.031370      1.631418      1.885513
  C       1.197269      2.508533      2.054960
  O       1.895117      2.767903      1.109355
  C      -1.337521      0.054070      0.336152
  C      -1.581307     -0.361432     -0.966783
  C      -2.659847     -1.167670     -1.278466
  C      -3.521070     -1.570265     -0.268286
  C      -3.297096     -1.146426      1.030277
  C      -2.208628     -0.344895      1.335145
  C       1.453223      3.081452      3.413838
  H       0.123058      1.507154     -0.246415
  H      -0.179738      1.004653      2.753900
  H      -0.905049     -0.065122     -1.758816
  H      -2.824877     -1.484248     -2.299067
  H      -4.368367     -2.203873     -0.492684
  H      -3.976654     -1.441576      1.818211
  H      -2.045563     -0.039197      2.357118
  H       1.118156      4.117929      3.378586
  H       0.904752      2.560427      4.194579
  H       2.522461      3.054576      3.611443
  Br      1.428909     -0.428096      0.577228
  Br      2.088212     -0.739245      3.990328
  Br      2.413362     -0.061788      6.152820
