25
orca_input_trj
Br     -1.36962      3.73692       1.31954
 C     -0.55787      1.31454       0.57484
 C     -0.40810      2.09866       1.80644
 C      1.03438      2.49551       2.12797
 O      1.89303      2.34628       1.29991
 C     -1.48450      0.32942       0.33404
 C     -1.52979     -0.22038      -0.97528
 C     -2.44306     -1.19023      -1.28286
 C     -3.31323     -1.63617      -0.29423
 C     -3.28823     -1.11860       1.00247
 C     -2.38980     -0.14344       1.32188
 C      1.26054      3.03945       3.49313
 H      0.12548      1.58113      -0.22475
 H     -0.91211      1.69509       2.67604
 H     -0.83812      0.14674      -1.72108
 H     -2.48751     -1.61063      -2.27633
 H     -4.03196     -2.40840      -0.53536
 H     -3.97824     -1.49230       1.74422
 H     -2.36843      0.25980       2.32278
 H      0.48697      3.75773       3.75637
 H      1.20173      2.21667       4.20684
 H      2.24056      3.50162       3.55238
Br      1.19470     -2.16298       1.70986
Br      2.61262     -1.22699       3.66061
Br      3.94519     -0.29556       5.62673
