 Entering Gaussian System, Link 0=g16
 Input=d2.gjf
 Output=d2.log
 Initial command:
 /opt/ibs_lib/apps/gaussian/AVX/g16/l1.exe "/opt/ibs_lib/apps/gaussian/AVX/scratch/Gau-377774.inp" -scrdir="/opt/ibs_lib/apps/gaussian/AVX/scratch/"
 Entering Link 1 = /opt/ibs_lib/apps/gaussian/AVX/g16/l1.exe PID=    377775.
  
 Copyright (c) 1988-2019, Gaussian, Inc.  All Rights Reserved.
  
 This is part of the Gaussian(R) 16 program.  It is based on
 the Gaussian(R) 09 system (copyright 2009, Gaussian, Inc.),
 the Gaussian(R) 03 system (copyright 2003, Gaussian, Inc.),
 the Gaussian(R) 98 system (copyright 1998, Gaussian, Inc.),
 the Gaussian(R) 94 system (copyright 1995, Gaussian, Inc.),
 the Gaussian 92(TM) system (copyright 1992, Gaussian, Inc.),
 the Gaussian 90(TM) system (copyright 1990, Gaussian, Inc.),
 the Gaussian 88(TM) system (copyright 1988, Gaussian, Inc.),
 the Gaussian 86(TM) system (copyright 1986, Carnegie Mellon
 University), and the Gaussian 82(TM) system (copyright 1983,
 Carnegie Mellon University). Gaussian is a federally registered
 trademark of Gaussian, Inc.
  
 This software contains proprietary and confidential information,
 including trade secrets, belonging to Gaussian, Inc.
  
 This software is provided under written license and may be
 used, copied, transmitted, or stored only in accord with that
 written license.
  
 The following legend is applicable only to US Government
 contracts under FAR:
  
                    RESTRICTED RIGHTS LEGEND
  
 Use, reproduction and disclosure by the US Government is
 subject to restrictions as set forth in subparagraphs (a)
 and (c) of the Commercial Computer Software - Restricted
 Rights clause in FAR 52.227-19.
  
 Gaussian, Inc.
 340 Quinnipiac St., Bldg. 40, Wallingford CT 06492
  
  
 ---------------------------------------------------------------
 Warning -- This program may not be used in any manner that
 competes with the business of Gaussian, Inc. or will provide
 assistance to any competitor of Gaussian, Inc.  The licensee
 of this program is prohibited from giving any competitor of
 Gaussian, Inc. access to this program.  By using this program,
 the user acknowledges that Gaussian, Inc. is engaged in the
 business of creating and licensing software in the field of
 computational chemistry and represents and warrants to the
 licensee that it is not a competitor of Gaussian, Inc. and that
 it will not use this program in any manner prohibited above.
 ---------------------------------------------------------------
  

 Cite this work as:
 Gaussian 16, Revision C.01,
 M. J. Frisch, G. W. Trucks, H. B. Schlegel, G. E. Scuseria, 
 M. A. Robb, J. R. Cheeseman, G. Scalmani, V. Barone, 
 G. A. Petersson, H. Nakatsuji, X. Li, M. Caricato, A. V. Marenich, 
 J. Bloino, B. G. Janesko, R. Gomperts, B. Mennucci, H. P. Hratchian, 
 J. V. Ortiz, A. F. Izmaylov, J. L. Sonnenberg, D. Williams-Young, 
 F. Ding, F. Lipparini, F. Egidi, J. Goings, B. Peng, A. Petrone, 
 T. Henderson, D. Ranasinghe, V. G. Zakrzewski, J. Gao, N. Rega, 
 G. Zheng, W. Liang, M. Hada, M. Ehara, K. Toyota, R. Fukuda, 
 J. Hasegawa, M. Ishida, T. Nakajima, Y. Honda, O. Kitao, H. Nakai, 
 T. Vreven, K. Throssell, J. A. Montgomery, Jr., J. E. Peralta, 
 F. Ogliaro, M. J. Bearpark, J. J. Heyd, E. N. Brothers, K. N. Kudin, 
 V. N. Staroverov, T. A. Keith, R. Kobayashi, J. Normand, 
 K. Raghavachari, A. P. Rendell, J. C. Burant, S. S. Iyengar, 
 J. Tomasi, M. Cossi, J. M. Millam, M. Klene, C. Adamo, R. Cammi, 
 J. W. Ochterski, R. L. Martin, K. Morokuma, O. Farkas, 
 J. B. Foresman, and D. J. Fox, Gaussian, Inc., Wallingford CT, 2019.
 
 ******************************************
 Gaussian 16:  ES64L-G16RevC.01  3-Jul-2019
                31-Jan-2026 
 ******************************************
 %Mem=36GB
 %NProcShared=36
 Will use up to   36 processors via shared memory.
 %Chk=d2.chk
 ----------------------------------------------------------------
 # opt wB97XD/Def2TZVP scrf=(CPCM,solvent=DiChloroEthane) pop=nbo
 ----------------------------------------------------------------
 1/18=20,19=15,26=3,38=1/1,3;
 2/9=110,12=2,17=6,18=5,40=1/2;
 3/5=44,7=101,11=2,25=1,30=1,70=2101,71=1,72=10,74=-58/1,2,3;
 4//1;
 5/5=2,38=5,53=10/2;
 6/7=2,8=2,9=2,10=2,28=1,40=1/1,7;
 7//1,2,3,16;
 1/18=20,19=15,26=3/3(2);
 2/9=110/2;
 99//99;
 2/9=110/2;
 3/5=44,7=101,11=2,25=1,30=1,70=2105,71=1,72=10,74=-58/1,2,3;
 4/5=5,16=3,69=1/1;
 5/5=2,38=5,53=10/2;
 7//1,2,3,16;
 1/18=20,19=15,26=3/3(-5);
 2/9=110/2;
 6/7=2,8=2,9=2,10=2,19=2,28=1,40=1/1,7;
 99/9=1/99;
 ---------------------
 These are very "NANI?
 ---------------------
 Symbolic Z-matrix:
 Charge =  1 Multiplicity = 1
 C                    -0.60345   1.39977   0.56777 
 C                    -0.43962   2.17372   1.79779 
 Br                   -1.32695   3.86566   1.21127 
 C                     1.02711   2.55749   2.12265 
 O                     1.86864   2.50659   1.2554 
 C                    -1.51945   0.3841    0.3356 
 C                    -1.48934  -0.24465  -0.9482 
 C                    -2.35194  -1.27782  -1.23003 
 C                    -3.26146  -1.69916  -0.25275 
 C                    -3.3148   -1.0924    1.01254 
 C                    -2.45973  -0.06134   1.31461 
 C                     1.27302   2.95012   3.53994 
 H                     0.08914   1.66453  -0.23143 
 H                    -0.98978   1.83012   2.67234 
 H                    -0.77375   0.10337  -1.68748 
 H                    -2.33256  -1.76337  -2.19982 
 H                    -3.94443  -2.51377  -0.47772 
 H                    -4.0336   -1.44018   1.74676 
 H                    -2.50706   0.41216   2.28916 
 H                     0.50048   3.64047   3.89444 
 H                     1.19961   2.04586   4.15921 
 H                     2.26616   3.38785   3.64528 
 

 GradGradGradGradGradGradGradGradGradGradGradGradGradGradGradGradGradGrad
 Berny optimization.
 Initialization pass.
                           ----------------------------
                           !    Initial Parameters    !
                           ! (Angstroms and Degrees)  !
 --------------------------                            --------------------------
 ! Name  Definition              Value          Derivative Info.                !
 --------------------------------------------------------------------------------
 ! R1    R(1,2)                  1.4625         estimate D2E/DX2                !
 ! R2    R(1,6)                  1.3873         estimate D2E/DX2                !
 ! R3    R(1,13)                 1.0902         estimate D2E/DX2                !
 ! R4    R(2,3)                  1.9985         estimate D2E/DX2                !
 ! R5    R(2,4)                  1.5505         estimate D2E/DX2                !
 ! R6    R(2,14)                 1.0888         estimate D2E/DX2                !
 ! R7    R(4,5)                  1.2095         estimate D2E/DX2                !
 ! R8    R(4,12)                 1.4911         estimate D2E/DX2                !
 ! R9    R(6,7)                  1.4298         estimate D2E/DX2                !
 ! R10   R(6,11)                 1.4286         estimate D2E/DX2                !
 ! R11   R(7,8)                  1.3751         estimate D2E/DX2                !
 ! R12   R(7,15)                 1.0862         estimate D2E/DX2                !
 ! R13   R(8,9)                  1.3999         estimate D2E/DX2                !
 ! R14   R(8,16)                 1.0847         estimate D2E/DX2                !
 ! R15   R(9,10)                 1.4043         estimate D2E/DX2                !
 ! R16   R(9,17)                 1.0866         estimate D2E/DX2                !
 ! R17   R(10,11)                1.3731         estimate D2E/DX2                !
 ! R18   R(10,18)                1.0848         estimate D2E/DX2                !
 ! R19   R(11,19)                1.0845         estimate D2E/DX2                !
 ! R20   R(12,20)                1.095          estimate D2E/DX2                !
 ! R21   R(12,21)                1.0984         estimate D2E/DX2                !
 ! R22   R(12,22)                1.0904         estimate D2E/DX2                !
 ! A1    A(2,1,6)              127.0259         estimate D2E/DX2                !
 ! A2    A(2,1,13)             114.6378         estimate D2E/DX2                !
 ! A3    A(6,1,13)             118.3329         estimate D2E/DX2                !
 ! A4    A(1,2,3)               98.7115         estimate D2E/DX2                !
 ! A5    A(1,2,4)              114.4043         estimate D2E/DX2                !
 ! A6    A(1,2,14)             116.8678         estimate D2E/DX2                !
 ! A7    A(3,2,4)              105.7803         estimate D2E/DX2                !
 ! A8    A(3,2,14)             106.1731         estimate D2E/DX2                !
 ! A9    A(4,2,14)             112.817          estimate D2E/DX2                !
 ! A10   A(2,4,5)              119.8362         estimate D2E/DX2                !
 ! A11   A(2,4,12)             114.8554         estimate D2E/DX2                !
 ! A12   A(5,4,12)             125.3016         estimate D2E/DX2                !
 ! A13   A(1,6,7)              117.2781         estimate D2E/DX2                !
 ! A14   A(1,6,11)             123.2413         estimate D2E/DX2                !
 ! A15   A(7,6,11)             119.4751         estimate D2E/DX2                !
 ! A16   A(6,7,8)              120.0796         estimate D2E/DX2                !
 ! A17   A(6,7,15)             118.954          estimate D2E/DX2                !
 ! A18   A(8,7,15)             120.9655         estimate D2E/DX2                !
 ! A19   A(7,8,9)              119.3799         estimate D2E/DX2                !
 ! A20   A(7,8,16)             120.5534         estimate D2E/DX2                !
 ! A21   A(9,8,16)             120.0666         estimate D2E/DX2                !
 ! A22   A(8,9,10)             121.5763         estimate D2E/DX2                !
 ! A23   A(8,9,17)             119.3054         estimate D2E/DX2                !
 ! A24   A(10,9,17)            119.1182         estimate D2E/DX2                !
 ! A25   A(9,10,11)            119.9343         estimate D2E/DX2                !
 ! A26   A(9,10,18)            119.7691         estimate D2E/DX2                !
 ! A27   A(11,10,18)           120.2965         estimate D2E/DX2                !
 ! A28   A(6,11,10)            119.5525         estimate D2E/DX2                !
 ! A29   A(6,11,19)            120.5561         estimate D2E/DX2                !
 ! A30   A(10,11,19)           119.8901         estimate D2E/DX2                !
 ! A31   A(4,12,20)            110.9389         estimate D2E/DX2                !
 ! A32   A(4,12,21)            107.9435         estimate D2E/DX2                !
 ! A33   A(4,12,22)            110.3487         estimate D2E/DX2                !
 ! A34   A(20,12,21)           106.8179         estimate D2E/DX2                !
 ! A35   A(20,12,22)           110.99           estimate D2E/DX2                !
 ! A36   A(21,12,22)           109.6864         estimate D2E/DX2                !
 ! D1    D(6,1,2,3)           -103.658          estimate D2E/DX2                !
 ! D2    D(6,1,2,4)            144.5254         estimate D2E/DX2                !
 ! D3    D(6,1,2,14)             9.5157         estimate D2E/DX2                !
 ! D4    D(13,1,2,3)            77.0191         estimate D2E/DX2                !
 ! D5    D(13,1,2,4)           -34.7975         estimate D2E/DX2                !
 ! D6    D(13,1,2,14)         -169.8073         estimate D2E/DX2                !
 ! D7    D(2,1,6,7)           -179.4381         estimate D2E/DX2                !
 ! D8    D(2,1,6,11)            -0.3066         estimate D2E/DX2                !
 ! D9    D(13,1,6,7)            -0.1372         estimate D2E/DX2                !
 ! D10   D(13,1,6,11)          178.9942         estimate D2E/DX2                !
 ! D11   D(1,2,4,5)             17.6023         estimate D2E/DX2                !
 ! D12   D(1,2,4,12)          -161.4986         estimate D2E/DX2                !
 ! D13   D(3,2,4,5)            -89.9184         estimate D2E/DX2                !
 ! D14   D(3,2,4,12)            90.9807         estimate D2E/DX2                !
 ! D15   D(14,2,4,5)           154.4289         estimate D2E/DX2                !
 ! D16   D(14,2,4,12)          -24.672          estimate D2E/DX2                !
 ! D17   D(2,4,12,20)          -45.5252         estimate D2E/DX2                !
 ! D18   D(2,4,12,21)           71.1889         estimate D2E/DX2                !
 ! D19   D(2,4,12,22)         -168.9589         estimate D2E/DX2                !
 ! D20   D(5,4,12,20)          135.4305         estimate D2E/DX2                !
 ! D21   D(5,4,12,21)         -107.8555         estimate D2E/DX2                !
 ! D22   D(5,4,12,22)           11.9967         estimate D2E/DX2                !
 ! D23   D(1,6,7,8)            178.5683         estimate D2E/DX2                !
 ! D24   D(1,6,7,15)            -1.0761         estimate D2E/DX2                !
 ! D25   D(11,6,7,8)            -0.5973         estimate D2E/DX2                !
 ! D26   D(11,6,7,15)          179.7584         estimate D2E/DX2                !
 ! D27   D(1,6,11,10)         -178.6742         estimate D2E/DX2                !
 ! D28   D(1,6,11,19)            1.7352         estimate D2E/DX2                !
 ! D29   D(7,6,11,10)            0.4391         estimate D2E/DX2                !
 ! D30   D(7,6,11,19)         -179.1515         estimate D2E/DX2                !
 ! D31   D(6,7,8,9)              0.4029         estimate D2E/DX2                !
 ! D32   D(6,7,8,16)          -179.7134         estimate D2E/DX2                !
 ! D33   D(15,7,8,9)          -179.96           estimate D2E/DX2                !
 ! D34   D(15,7,8,16)           -0.0764         estimate D2E/DX2                !
 ! D35   D(7,8,9,10)            -0.054          estimate D2E/DX2                !
 ! D36   D(7,8,9,17)           179.8269         estimate D2E/DX2                !
 ! D37   D(16,8,9,10)         -179.9382         estimate D2E/DX2                !
 ! D38   D(16,8,9,17)           -0.0573         estimate D2E/DX2                !
 ! D39   D(8,9,10,11)           -0.1027         estimate D2E/DX2                !
 ! D40   D(8,9,10,18)          179.7948         estimate D2E/DX2                !
 ! D41   D(17,9,10,11)        -179.9838         estimate D2E/DX2                !
 ! D42   D(17,9,10,18)          -0.0863         estimate D2E/DX2                !
 ! D43   D(9,10,11,6)           -0.0955         estimate D2E/DX2                !
 ! D44   D(9,10,11,19)         179.4978         estimate D2E/DX2                !
 ! D45   D(18,10,11,6)        -179.9925         estimate D2E/DX2                !
 ! D46   D(18,10,11,19)         -0.3991         estimate D2E/DX2                !
 --------------------------------------------------------------------------------
 Trust Radius=3.00D-01 FncErr=1.00D-07 GrdErr=1.00D-06 EigMax=2.50D+02 EigMin=1.00D-04
 Number of steps in this run=    114 maximum allowed number of steps=    132.
 GradGradGradGradGradGradGradGradGradGradGradGradGradGradGradGradGradGrad

                          Input orientation:                          
 ---------------------------------------------------------------------
 Center     Atomic      Atomic             Coordinates (Angstroms)
 Number     Number       Type             X           Y           Z
 ---------------------------------------------------------------------
      1          6           0       -0.603450    1.399770    0.567770
      2          6           0       -0.439620    2.173720    1.797790
      3         35           0       -1.326950    3.865660    1.211270
      4          6           0        1.027110    2.557490    2.122650
      5          8           0        1.868640    2.506590    1.255400
      6          6           0       -1.519450    0.384100    0.335600
      7          6           0       -1.489340   -0.244650   -0.948200
      8          6           0       -2.351940   -1.277820   -1.230030
      9          6           0       -3.261460   -1.699160   -0.252750
     10          6           0       -3.314800   -1.092400    1.012540
     11          6           0       -2.459730   -0.061340    1.314610
     12          6           0        1.273020    2.950120    3.539940
     13          1           0        0.089140    1.664530   -0.231430
     14          1           0       -0.989780    1.830120    2.672340
     15          1           0       -0.773750    0.103370   -1.687480
     16          1           0       -2.332560   -1.763370   -2.199820
     17          1           0       -3.944430   -2.513770   -0.477720
     18          1           0       -4.033600   -1.440180    1.746760
     19          1           0       -2.507060    0.412160    2.289160
     20          1           0        0.500480    3.640470    3.894440
     21          1           0        1.199610    2.045860    4.159210
     22          1           0        2.266160    3.387850    3.645280
 ---------------------------------------------------------------------
                    Distance matrix (angstroms):
                    1          2          3          4          5
     1  C    0.000000
     2  C    1.462460   0.000000
     3  Br   2.649181   1.998505   0.000000
     4  C    2.533119   1.550519   2.843153   0.000000
     5  O    2.794479   2.394380   3.472868   1.209498   0.000000
     6  C    1.387280   2.550838   3.595151   3.795015   4.102457
     7  C    2.405636   3.806690   4.645894   4.859489   4.868388
     8  C    3.668622   4.973710   5.784975   6.112941   6.189702
     9  C    4.164329   5.212168   6.070659   6.492567   6.802998
    10  C    3.709468   4.421631   5.345409   5.779812   6.315042
    11  C    2.477577   3.051197   4.088423   4.435003   5.033146
    12  C    3.841682   2.563400   3.608429   1.491087   2.402208
    13  H    1.090183   2.157915   2.988590   2.686793   2.467053
    14  H    2.182583   1.088841   2.528207   2.213385   3.261272
    15  H    2.606877   4.067567   4.781591   4.876771   4.627984
    16  H    4.544759   5.921553   6.658285   6.974307   6.915286
    17  H    5.250809   6.279666   7.099367   7.562791   7.873976
    18  H    4.606654   5.097016   5.980355   6.460143   7.117223
    19  H    2.749961   2.760226   3.805413   4.137695   4.960045
    20  H    4.160064   2.726002   3.254168   2.142294   3.181521
    21  H    4.070246   2.877452   4.287835   2.106917   3.015292
    22  H    4.653836   3.494077   4.366136   2.131465   2.578016
                    6          7          8          9         10
     6  C    0.000000
     7  C    1.429817   0.000000
     8  C    2.430271   1.375117   0.000000
     9  C    2.778620   2.395759   1.399939   0.000000
    10  C    2.421070   2.809891   2.447570   1.404266   0.000000
    11  C    1.428637   2.468920   2.822523   2.404546   1.373126
    12  C    4.964891   6.162839   7.332696   7.520759   6.616480
    13  H    2.132741   2.578823   3.951392   4.747777   4.553563
    14  H    2.798549   4.202683   5.171389   5.115906   4.086781
    15  H    2.174334   1.086150   2.146539   3.390614   3.895755
    16  H    3.420691   2.141047   1.084724   2.158254   3.425530
    17  H    3.865187   3.376052   2.151643   1.086577   2.153509
    18  H    3.411791   3.894273   3.422809   2.159007   1.084760
    19  H    2.189191   3.456538   3.907018   3.389410   2.132112
    20  H    5.229666   6.519563   7.654154   7.737120   6.727687
    21  H    4.977422   6.209873   7.259770   7.306963   6.334833
    22  H    5.857247   6.956931   8.177039   8.463267   7.625685
                   11         12         13         14         15
    11  C    0.000000
    12  C    5.287193   0.000000
    13  H    3.444649   4.156627   0.000000
    14  H    2.753508   2.669718   3.102155   0.000000
    15  H    3.447057   6.294376   2.302581   4.694291   0.000000
    16  H    3.906955   8.256031   4.635697   6.201143   2.485377
    17  H    3.381005   8.556721   5.812791   6.125538   4.285575
    18  H    2.136591   7.116913   5.527155   4.562499   4.980278
    19  H    1.084523   4.721726   3.829107   2.111771   4.348952
    20  H    5.396458   1.095021   4.593076   2.644196   6.729975
    21  H    5.091445   1.098440   4.544918   2.655326   6.469250
    22  H    6.297854   1.090427   4.768451   3.738219   6.961838
                   16         17         18         19         20
    16  H    0.000000
    17  H    2.475248   0.000000
    18  H    4.309696   2.471610   0.000000
    19  H    4.991425   4.275830   2.460830   0.000000
    20  H    8.623666   8.760575   7.140267   4.695126   0.000000
    21  H    8.211195   8.291712   6.734900   4.461554   1.761155
    22  H    9.047015   9.507874   8.160958   5.785968   1.800978
                   21         22
    21  H    0.000000
    22  H    1.789578   0.000000
 Stoichiometry    C10H10BrO(1+)
 Framework group  C1[X(C10H10BrO)]
 Deg. of freedom    60
 Full point group                 C1      NOp   1
 Largest Abelian subgroup         C1      NOp   1
 Largest concise Abelian subgroup C1      NOp   1
                         Standard orientation:                         
 ---------------------------------------------------------------------
 Center     Atomic      Atomic             Coordinates (Angstroms)
 Number     Number       Type             X           Y           Z
 ---------------------------------------------------------------------
      1          6           0        0.188806    0.458158   -0.526301
      2          6           0       -0.966611    0.374822    0.366366
      3         35           0       -1.634233   -1.430767   -0.170428
      4          6           0       -2.110551    1.365190    0.027721
      5          8           0       -2.153155    1.884924   -1.063585
      6          6           0        1.522628    0.289450   -0.184247
      7          6           0        2.489586    0.429224   -1.228196
      8          6           0        3.829844    0.302932   -0.947651
      9          6           0        4.234054    0.028737    0.364318
     10          6           0        3.302775   -0.120014    1.404777
     11          6           0        1.960157    0.005592    1.145789
     12          6           0       -3.078650    1.607069    1.135701
     13          1           0       -0.054084    0.689041   -1.563701
     14          1           0       -0.760478    0.316906    1.433947
     15          1           0        2.147334    0.641094   -2.237006
     16          1           0        4.570241    0.412092   -1.732842
     17          1           0        5.293237   -0.073618    0.584099
     18          1           0        3.648341   -0.335543    2.410180
     19          1           0        1.241102   -0.117501    1.948285
     20          1           0       -3.375847    0.665057    1.608311
     21          1           0       -2.569678    2.202330    1.905884
     22          1           0       -3.948999    2.150645    0.766853
 ---------------------------------------------------------------------
 Rotational constants (GHZ):           1.1778166           0.3669722           0.3312139
 Standard basis: def2TZVP (5D, 7F)
 There are   511 symmetry adapted cartesian basis functions of A   symmetry.
 There are   449 symmetry adapted basis functions of A   symmetry.
   449 basis functions,   755 primitive gaussians,   511 cartesian basis functions
    56 alpha electrons       56 beta electrons
       nuclear repulsion energy       922.2336130149 Hartrees.
 NAtoms=   22 NActive=   22 NUniq=   22 SFac= 1.00D+00 NAtFMM=   60 NAOKFM=F Big=F
 Integral buffers will be    131072 words long.
 Raffenetti 2 integral format.
 Two-electron integral symmetry is turned on.
 Nuclear repulsion after empirical dispersion term =      922.2206027122 Hartrees.
 ------------------------------------------------------------------------------
 Polarizable Continuum Model (PCM)
 =================================
 Model                : C-PCM.
 Atomic radii         : UFF (Universal Force Field).
 Polarization charges : Total charges.
 Charge compensation  : None.
 Solution method      : On-the-fly selection.
 Cavity type          : Scaled VdW (van der Waals Surface) (Alpha=1.100).
 Cavity algorithm     : GePol (No added spheres)
                        Default sphere list used, NSphG=   22.
                        Lebedev-Laikov grids with approx.  5.0 points / Ang**2.
                        Smoothing algorithm: York/Karplus (Gamma=1.0000).
                        Polarization charges: spherical gaussians, with
                                              point-specific exponents (IZeta= 3).
                        Self-potential: point-specific (ISelfS= 7).
                        Self-field    : sphere-specific E.n sum rule (ISelfD= 2).
 1st derivatives      : Analytical E(r).r(x)/FMM algorithm (CHGder, D1EAlg=3).
                        Cavity 1st derivative terms included.
 Solvent              : DiChloroEthane, Eps=  10.125000 Eps(inf)=   2.087447
 ------------------------------------------------------------------------------
 One-electron integrals computed using PRISM.
   1 Symmetry operations used in ECPInt.
 ECPInt:  NShTT=   15753 NPrTT=   51378 LenC2=   14550 LenP2D=   35088.
 LDataN:  DoStor=T MaxTD1= 6 Len=  172
 NBasis=   449 RedAO= T EigKep=  9.16D-06  NBF=   449
 NBsUse=   449 1.00D-06 EigRej= -1.00D+00 NBFU=   449
 ExpMin= 9.52D-02 ExpMax= 5.65D+05 ExpMxC= 5.46D+03 IAcc=3 IRadAn=         5 AccDes= 0.00D+00
 Harris functional with IExCor= 4639 and IRadAn=       5 diagonalized for initial guess.
 HarFok:  IExCor= 4639 AccDes= 0.00D+00 IRadAn=         5 IDoV= 1 UseB2=F ITyADJ=14
 ICtDFT=  3500011 ScaDFX=  1.000000  1.000000  1.000000  1.000000
 FoFCou: FMM=F IPFlag=           0 FMFlag=      100000 FMFlg1=           0
         NFxFlg=           0 DoJE=T BraDBF=F KetDBF=T FulRan=T
         wScrn=  0.000000 ICntrl=       500 IOpCl=  0 I1Cent=   200000004 NGrid=           0
         NMat0=    1 NMatS0=      1 NMatT0=    0 NMatD0=    1 NMtDS0=    0 NMtDT0=    0
 Petite list used in FoFCou.
 Requested convergence on RMS density matrix=1.00D-08 within 128 cycles.
 Requested convergence on MAX density matrix=1.00D-06.
 Requested convergence on             energy=1.00D-06.
 No special actions if energy rises.
 Inv3:  Mode=1 IEnd=    11163123.
 Iteration    1 A*A^-1 deviation from unit magnitude is 5.22D-15 for   1901.
 Iteration    1 A*A^-1 deviation from orthogonality  is 2.11D-15 for   1929   1805.
 Iteration    1 A^-1*A deviation from unit magnitude is 5.22D-15 for   1901.
 Iteration    1 A^-1*A deviation from orthogonality  is 1.92D-15 for   1927   1664.
 Error on total polarization charges =  0.01069
 SCF Done:  E(RwB97XD) =  -3036.30854924     A.U. after   14 cycles
            NFock= 14  Conv=0.73D-08     -V/T= 2.0020

 **********************************************************************

            Population analysis using the SCF Density.

 **********************************************************************

 Orbital symmetries:
       Occupied  (A) (A) (A) (A) (A) (A) (A) (A) (A) (A) (A) (A)
                 (A) (A) (A) (A) (A) (A) (A) (A) (A) (A) (A) (A)
                 (A) (A) (A) (A) (A) (A) (A) (A) (A) (A) (A) (A)
                 (A) (A) (A) (A) (A) (A) (A) (A) (A) (A) (A) (A)
                 (A) (A) (A) (A) (A) (A) (A) (A)
       Virtual   (A) (A) (A) (A) (A) (A) (A) (A) (A) (A) (A) (A)
                 (A) (A) (A) (A) (A) (A) (A) (A) (A) (A) (A) (A)
                 (A) (A) (A) (A) (A) (A) (A) (A) (A) (A) (A) (A)
                 (A) (A) (A) (A) (A) (A) (A) (A) (A) (A) (A) (A)
                 (A) (A) (A) (A) (A) (A) (A) (A) (A) (A) (A) (A)
                 (A) (A) (A) (A) (A) (A) (A) (A) (A) (A) (A) (A)
                 (A) (A) (A) (A) (A) (A) (A) (A) (A) (A) (A) (A)
                 (A) (A) (A) (A) (A) (A) (A) (A) (A) (A) (A) (A)
                 (A) (A) (A) (A) (A) (A) (A) (A) (A) (A) (A) (A)
                 (A) (A) (A) (A) (A) (A) (A) (A) (A) (A) (A) (A)
                 (A) (A) (A) (A) (A) (A) (A) (A) (A) (A) (A) (A)
                 (A) (A) (A) (A) (A) (A) (A) (A) (A) (A) (A) (A)
                 (A) (A) (A) (A) (A) (A) (A) (A) (A) (A) (A) (A)
                 (A) (A) (A) (A) (A) (A) (A) (A) (A) (A) (A) (A)
                 (A) (A) (A) (A) (A) (A) (A) (A) (A) (A) (A) (A)
                 (A) (A) (A) (A) (A) (A) (A) (A) (A) (A) (A) (A)
                 (A) (A) (A) (A) (A) (A) (A) (A) (A) (A) (A) (A)
                 (A) (A) (A) (A) (A) (A) (A) (A) (A) (A) (A) (A)
                 (A) (A) (A) (A) (A) (A) (A) (A) (A) (A) (A) (A)
                 (A) (A) (A) (A) (A) (A) (A) (A) (A) (A) (A) (A)
                 (A) (A) (A) (A) (A) (A) (A) (A) (A) (A) (A) (A)
                 (A) (A) (A) (A) (A) (A) (A) (A) (A) (A) (A) (A)
                 (A) (A) (A) (A) (A) (A) (A) (A) (A) (A) (A) (A)
                 (A) (A) (A) (A) (A) (A) (A) (A) (A) (A) (A) (A)
                 (A) (A) (A) (A) (A) (A) (A) (A) (A) (A) (A) (A)
                 (A) (A) (A) (A) (A) (A) (A) (A) (A) (A) (A) (A)
                 (A) (A) (A) (A) (A) (A) (A) (A) (A) (A) (A) (A)
                 (A) (A) (A) (A) (A) (A) (A) (A) (A) (A) (A) (A)
                 (A) (A) (A) (A) (A) (A) (A) (A) (A) (A) (A) (A)
                 (A) (A) (A) (A) (A) (A) (A) (A) (A) (A) (A) (A)
                 (A) (A) (A) (A) (A) (A) (A) (A) (A) (A) (A) (A)
                 (A) (A) (A) (A) (A) (A) (A) (A) (A) (A) (A) (A)
                 (A) (A) (A) (A) (A) (A) (A) (A) (A)
 The electronic state is 1-A.
 Alpha  occ. eigenvalues -- -483.18287 -62.73060 -56.52231 -56.51817 -56.51783
 Alpha  occ. eigenvalues --  -19.29009 -10.43393 -10.42520 -10.41197 -10.37292
 Alpha  occ. eigenvalues --  -10.37032 -10.36904 -10.36824 -10.34548 -10.34409
 Alpha  occ. eigenvalues --  -10.31551  -8.87099  -6.69389  -6.68073  -6.67969
 Alpha  occ. eigenvalues --   -2.79731  -2.79391  -2.79307  -2.78246  -2.78244
 Alpha  occ. eigenvalues --   -1.19908  -1.04047  -1.00006  -0.93857  -0.91483
 Alpha  occ. eigenvalues --   -0.88937  -0.86519  -0.80448  -0.76486  -0.73270
 Alpha  occ. eigenvalues --   -0.68300  -0.67376  -0.62875  -0.61985  -0.59890
 Alpha  occ. eigenvalues --   -0.58589  -0.57725  -0.57052  -0.56166  -0.53984
 Alpha  occ. eigenvalues --   -0.53814  -0.51435  -0.50944  -0.49632  -0.48054
 Alpha  occ. eigenvalues --   -0.47907  -0.43934  -0.41986  -0.40107  -0.39644
 Alpha  occ. eigenvalues --   -0.38544
 Alpha virt. eigenvalues --   -0.12524  -0.02779   0.00513   0.02720   0.06209
 Alpha virt. eigenvalues --    0.10262   0.10807   0.11835   0.14111   0.15104
 Alpha virt. eigenvalues --    0.15847   0.16260   0.16644   0.17000   0.17557
 Alpha virt. eigenvalues --    0.18004   0.19020   0.20228   0.21310   0.22669
 Alpha virt. eigenvalues --    0.22849   0.23803   0.24310   0.25305   0.26144
 Alpha virt. eigenvalues --    0.27033   0.27177   0.27538   0.28024   0.28424
 Alpha virt. eigenvalues --    0.28937   0.29703   0.30529   0.31385   0.32119
 Alpha virt. eigenvalues --    0.32780   0.33555   0.34097   0.34844   0.35451
 Alpha virt. eigenvalues --    0.36018   0.38082   0.38193   0.39388   0.40055
 Alpha virt. eigenvalues --    0.40959   0.41368   0.42311   0.42887   0.43910
 Alpha virt. eigenvalues --    0.44667   0.45071   0.45581   0.46115   0.46767
 Alpha virt. eigenvalues --    0.47517   0.48375   0.49017   0.50387   0.50446
 Alpha virt. eigenvalues --    0.51572   0.51886   0.52450   0.53114   0.53842
 Alpha virt. eigenvalues --    0.54113   0.54900   0.55937   0.57470   0.57535
 Alpha virt. eigenvalues --    0.59086   0.60828   0.61667   0.62093   0.64727
 Alpha virt. eigenvalues --    0.66061   0.67071   0.68381   0.69600   0.69736
 Alpha virt. eigenvalues --    0.70393   0.71654   0.72570   0.74174   0.75359
 Alpha virt. eigenvalues --    0.75703   0.76977   0.77621   0.79228   0.80507
 Alpha virt. eigenvalues --    0.81248   0.81784   0.84078   0.86066   0.86735
 Alpha virt. eigenvalues --    0.89482   0.90698   0.91408   0.92684   0.93734
 Alpha virt. eigenvalues --    0.94964   0.95610   0.95889   0.96946   1.00366
 Alpha virt. eigenvalues --    1.02425   1.03236   1.04368   1.05835   1.06254
 Alpha virt. eigenvalues --    1.07502   1.08690   1.09455   1.10597   1.12089
 Alpha virt. eigenvalues --    1.12884   1.15224   1.16015   1.19267   1.21004
 Alpha virt. eigenvalues --    1.21778   1.22743   1.23471   1.25677   1.25814
 Alpha virt. eigenvalues --    1.27102   1.27878   1.29226   1.30235   1.32026
 Alpha virt. eigenvalues --    1.32910   1.36693   1.40148   1.41346   1.41419
 Alpha virt. eigenvalues --    1.42243   1.43336   1.43979   1.46500   1.48131
 Alpha virt. eigenvalues --    1.48786   1.50001   1.51061   1.51882   1.52067
 Alpha virt. eigenvalues --    1.52709   1.53779   1.54885   1.56200   1.57107
 Alpha virt. eigenvalues --    1.58070   1.58540   1.59342   1.60231   1.60747
 Alpha virt. eigenvalues --    1.62343   1.63501   1.65010   1.65540   1.65848
 Alpha virt. eigenvalues --    1.66473   1.68454   1.69150   1.69823   1.70960
 Alpha virt. eigenvalues --    1.72006   1.72906   1.73390   1.74213   1.74973
 Alpha virt. eigenvalues --    1.75401   1.76304   1.76636   1.78473   1.81850
 Alpha virt. eigenvalues --    1.85950   1.87792   1.88516   1.90940   1.91753
 Alpha virt. eigenvalues --    1.93397   1.95504   1.97099   1.98384   2.00677
 Alpha virt. eigenvalues --    2.02039   2.02732   2.05176   2.05855   2.08650
 Alpha virt. eigenvalues --    2.10180   2.10764   2.11605   2.14726   2.15617
 Alpha virt. eigenvalues --    2.17492   2.18504   2.19617   2.22840   2.23843
 Alpha virt. eigenvalues --    2.24955   2.25516   2.26820   2.28695   2.30579
 Alpha virt. eigenvalues --    2.32507   2.38051   2.39321   2.41678   2.42129
 Alpha virt. eigenvalues --    2.43277   2.45437   2.48031   2.48577   2.50797
 Alpha virt. eigenvalues --    2.51708   2.53885   2.56110   2.57996   2.58548
 Alpha virt. eigenvalues --    2.59514   2.61912   2.62216   2.63141   2.65270
 Alpha virt. eigenvalues --    2.67876   2.69138   2.69368   2.70712   2.71875
 Alpha virt. eigenvalues --    2.73363   2.73615   2.74667   2.75533   2.76835
 Alpha virt. eigenvalues --    2.77532   2.79761   2.80532   2.80873   2.81745
 Alpha virt. eigenvalues --    2.85265   2.85744   2.87022   2.87369   2.88679
 Alpha virt. eigenvalues --    2.89417   2.89776   2.93999   2.94812   2.96623
 Alpha virt. eigenvalues --    2.97466   2.99863   3.01247   3.02102   3.02990
 Alpha virt. eigenvalues --    3.05450   3.06894   3.08019   3.09285   3.12645
 Alpha virt. eigenvalues --    3.13082   3.14035   3.15034   3.15751   3.16311
 Alpha virt. eigenvalues --    3.16919   3.17995   3.19065   3.20247   3.21437
 Alpha virt. eigenvalues --    3.22462   3.23799   3.25356   3.25815   3.27772
 Alpha virt. eigenvalues --    3.28568   3.30801   3.32387   3.33448   3.33860
 Alpha virt. eigenvalues --    3.34904   3.36176   3.36971   3.38171   3.39692
 Alpha virt. eigenvalues --    3.40053   3.40696   3.41087   3.43436   3.44094
 Alpha virt. eigenvalues --    3.44661   3.46319   3.48169   3.49328   3.49959
 Alpha virt. eigenvalues --    3.51301   3.52852   3.53702   3.56684   3.57627
 Alpha virt. eigenvalues --    3.59733   3.62451   3.64102   3.65078   3.67961
 Alpha virt. eigenvalues --    3.71476   3.72020   3.73759   3.76068   3.78169
 Alpha virt. eigenvalues --    3.81703   3.83239   3.87170   3.89554   3.91520
 Alpha virt. eigenvalues --    3.94653   3.94883   3.97304   3.98475   3.99695
 Alpha virt. eigenvalues --    4.01394   4.04248   4.07091   4.07286   4.09289
 Alpha virt. eigenvalues --    4.11635   4.11956   4.13278   4.17185   4.17955
 Alpha virt. eigenvalues --    4.20432   4.21289   4.22324   4.24344   4.25318
 Alpha virt. eigenvalues --    4.26628   4.28899   4.32293   4.34847   4.36431
 Alpha virt. eigenvalues --    4.37122   4.38844   4.44260   4.45714   4.46722
 Alpha virt. eigenvalues --    4.53068   4.53960   4.61127   4.65868   4.66990
 Alpha virt. eigenvalues --    4.69592   4.71318   4.74231   4.75734   4.77025
 Alpha virt. eigenvalues --    4.80193   4.86641   4.87580   4.90119   4.95610
 Alpha virt. eigenvalues --    5.01089   5.11205   5.14668   5.24130   5.24525
 Alpha virt. eigenvalues --    5.27440   5.33976   5.41123   5.46865   5.51944
 Alpha virt. eigenvalues --    5.64288   5.72901   5.75376   6.19239   6.38836
 Alpha virt. eigenvalues --    6.44228   6.58569   6.59565   6.86272   7.07760
 Alpha virt. eigenvalues --    7.13377   7.69408  22.06894  22.40167  22.48029
 Alpha virt. eigenvalues --   22.61317  22.63071  22.72304  22.76219  22.87475
 Alpha virt. eigenvalues --   23.08458  23.25815  43.95283
          Condensed to atoms (all electrons):
               1          2          3          4          5          6
     1  C    5.321626   0.117805   0.043244   0.016268   0.020802   0.281587
     2  C    0.117805   5.454876   0.193123   0.111737  -0.146340  -0.024424
     3  Br   0.043244   0.193123  34.806612  -0.000401  -0.002858  -0.007595
     4  C    0.016268   0.111737  -0.000401   4.740681   0.616895   0.015754
     5  O    0.020802  -0.146340  -0.002858   0.616895   7.871923   0.010633
     6  C    0.281587  -0.024424  -0.007595   0.015754   0.010633   5.008749
     7  C   -0.066770   0.012990   0.001265  -0.000290  -0.000708   0.377234
     8  C    0.000974  -0.001835   0.000002   0.000055   0.000010   0.015836
     9  C   -0.001480   0.000369   0.000312   0.000012  -0.000003  -0.074659
    10  C    0.006028  -0.000488  -0.002314  -0.000237   0.000019   0.004191
    11  C   -0.055618   0.003646  -0.003776  -0.002219   0.000307   0.296390
    12  C    0.010293  -0.082355  -0.006237   0.362986  -0.061306   0.001761
    13  H    0.388236  -0.029886  -0.002667  -0.010673   0.021891  -0.019058
    14  H   -0.054118   0.416544  -0.035996  -0.020833   0.002289   0.003100
    15  H    0.003532   0.002120  -0.000089  -0.000110  -0.000057  -0.061928
    16  H   -0.000710   0.000006  -0.000005   0.000000   0.000000   0.011060
    17  H   -0.000006  -0.000001   0.000001   0.000000   0.000000  -0.002401
    18  H   -0.000515   0.000081  -0.000020  -0.000000   0.000000   0.009991
    19  H   -0.006531   0.005624   0.001971   0.000288  -0.000009  -0.055728
    20  H    0.002307   0.016492   0.001218  -0.036789   0.001963  -0.000772
    21  H   -0.003199  -0.002142   0.000749  -0.017976   0.000400   0.000925
    22  H   -0.001180   0.011355  -0.000937  -0.042823   0.004014  -0.000013
               7          8          9         10         11         12
     1  C   -0.066770   0.000974  -0.001480   0.006028  -0.055618   0.010293
     2  C    0.012990  -0.001835   0.000369  -0.000488   0.003646  -0.082355
     3  Br   0.001265   0.000002   0.000312  -0.002314  -0.003776  -0.006237
     4  C   -0.000290   0.000055   0.000012  -0.000237  -0.002219   0.362986
     5  O   -0.000708   0.000010  -0.000003   0.000019   0.000307  -0.061306
     6  C    0.377234   0.015836  -0.074659   0.004191   0.296390   0.001761
     7  C    4.979915   0.443436   0.035051  -0.052815   0.004799  -0.000017
     8  C    0.443436   4.942812   0.403753   0.024648  -0.064455  -0.000001
     9  C    0.035051   0.403753   4.853345   0.395215   0.046878   0.000001
    10  C   -0.052815   0.024648   0.395215   4.946509   0.435561  -0.000014
    11  C    0.004799  -0.064455   0.046878   0.435561   5.061226   0.000124
    12  C   -0.000017  -0.000001   0.000001  -0.000014   0.000124   4.955668
    13  H   -0.006467   0.000528  -0.000088   0.000076   0.008421   0.001315
    14  H   -0.000567   0.000087  -0.000176   0.002232   0.003128   0.004408
    15  H    0.444527  -0.044792   0.009155  -0.003470   0.010354   0.000002
    16  H   -0.050810   0.446588  -0.048390   0.009034  -0.003247   0.000000
    17  H    0.009035  -0.045826   0.432757  -0.045196   0.009783   0.000000
    18  H   -0.002379   0.008014  -0.046305   0.440927  -0.045964   0.000000
    19  H    0.005237  -0.001772   0.007338  -0.025057   0.432257   0.000206
    20  H    0.000001   0.000000  -0.000000   0.000008   0.000149   0.390188
    21  H    0.000010  -0.000000   0.000000  -0.000016  -0.000253   0.391939
    22  H    0.000001  -0.000000   0.000000  -0.000000  -0.000009   0.409970
              13         14         15         16         17         18
     1  C    0.388236  -0.054118   0.003532  -0.000710  -0.000006  -0.000515
     2  C   -0.029886   0.416544   0.002120   0.000006  -0.000001   0.000081
     3  Br  -0.002667  -0.035996  -0.000089  -0.000005   0.000001  -0.000020
     4  C   -0.010673  -0.020833  -0.000110   0.000000   0.000000  -0.000000
     5  O    0.021891   0.002289  -0.000057   0.000000   0.000000   0.000000
     6  C   -0.019058   0.003100  -0.061928   0.011060  -0.002401   0.009991
     7  C   -0.006467  -0.000567   0.444527  -0.050810   0.009035  -0.002379
     8  C    0.000528   0.000087  -0.044792   0.446588  -0.045826   0.008014
     9  C   -0.000088  -0.000176   0.009155  -0.048390   0.432757  -0.046305
    10  C    0.000076   0.002232  -0.003470   0.009034  -0.045196   0.440927
    11  C    0.008421   0.003128   0.010354  -0.003247   0.009783  -0.045964
    12  C    0.001315   0.004408   0.000002   0.000000   0.000000   0.000000
    13  H    0.417167   0.001639   0.002814   0.000001  -0.000000   0.000005
    14  H    0.001639   0.464504  -0.000015   0.000001  -0.000000   0.000040
    15  H    0.002814  -0.000015   0.460560  -0.005637  -0.000025   0.000009
    16  H    0.000001   0.000001  -0.005637   0.469375  -0.005527  -0.000007
    17  H   -0.000000  -0.000000  -0.000025  -0.005527   0.464983  -0.005297
    18  H    0.000005   0.000040   0.000009  -0.000007  -0.005297   0.468667
    19  H    0.000145   0.000315   0.000029   0.000014  -0.000055  -0.005485
    20  H   -0.000024  -0.001307  -0.000000  -0.000000  -0.000000  -0.000000
    21  H   -0.000167  -0.002041   0.000001   0.000000   0.000000   0.000000
    22  H   -0.000078   0.000129   0.000000  -0.000000   0.000000  -0.000000
              19         20         21         22
     1  C   -0.006531   0.002307  -0.003199  -0.001180
     2  C    0.005624   0.016492  -0.002142   0.011355
     3  Br   0.001971   0.001218   0.000749  -0.000937
     4  C    0.000288  -0.036789  -0.017976  -0.042823
     5  O   -0.000009   0.001963   0.000400   0.004014
     6  C   -0.055728  -0.000772   0.000925  -0.000013
     7  C    0.005237   0.000001   0.000010   0.000001
     8  C   -0.001772   0.000000  -0.000000  -0.000000
     9  C    0.007338  -0.000000   0.000000   0.000000
    10  C   -0.025057   0.000008  -0.000016  -0.000000
    11  C    0.432257   0.000149  -0.000253  -0.000009
    12  C    0.000206   0.390188   0.391939   0.409970
    13  H    0.000145  -0.000024  -0.000167  -0.000078
    14  H    0.000315  -0.001307  -0.002041   0.000129
    15  H    0.000029  -0.000000   0.000001   0.000000
    16  H    0.000014  -0.000000   0.000000  -0.000000
    17  H   -0.000055  -0.000000   0.000000   0.000000
    18  H   -0.005485  -0.000000   0.000000  -0.000000
    19  H    0.466603   0.000018   0.000004  -0.000001
    20  H    0.000018   0.488582  -0.017226  -0.014775
    21  H    0.000004  -0.017226   0.482173  -0.011088
    22  H   -0.000001  -0.014775  -0.011088   0.483301
 Mulliken charges:
               1
     1  C   -0.022575
     2  C   -0.059300
     3  Br   0.014396
     4  C    0.267675
     5  O   -0.339866
     6  C    0.209367
     7  C   -0.132681
     8  C   -0.128062
     9  C   -0.013085
    10  C   -0.134842
    11  C   -0.137485
    12  C   -0.378934
    13  H    0.226870
    14  H    0.216639
    15  H    0.183020
    16  H    0.178253
    17  H    0.187776
    18  H    0.178239
    19  H    0.174590
    20  H    0.169966
    21  H    0.177906
    22  H    0.162133
 Sum of Mulliken charges =   1.00000
 Mulliken charges with hydrogens summed into heavy atoms:
               1
     1  C    0.204295
     2  C    0.157339
     3  Br   0.014396
     4  C    0.267675
     5  O   -0.339866
     6  C    0.209367
     7  C    0.050340
     8  C    0.050190
     9  C    0.174691
    10  C    0.043397
    11  C    0.037105
    12  C    0.131071
 Electronic spatial extent (au):  <R**2>=           3296.0230
 Charge=              1.0000 electrons
 Dipole moment (field-independent basis, Debye):
    X=              7.3238    Y=              0.8651    Z=              3.3095  Tot=              8.0833
 Quadrupole moment (field-independent basis, Debye-Ang):
   XX=            -35.2768   YY=            -81.0373   ZZ=            -67.5718
   XY=              1.0438   XZ=             -7.5847   YZ=              3.7342
 Traceless Quadrupole moment (field-independent basis, Debye-Ang):
   XX=             26.0185   YY=            -19.7420   ZZ=             -6.2765
   XY=              1.0438   XZ=             -7.5847   YZ=              3.7342
 Octapole moment (field-independent basis, Debye-Ang**2):
  XXX=             92.5755  YYY=            -48.0418  ZZZ=              0.2278  XYY=            -30.1318
  XXY=             -8.5390  XXZ=             22.1825  XZZ=              8.1635  YZZ=            -10.8744
  YYZ=              6.8035  XYZ=            -22.5130
 Hexadecapole moment (field-independent basis, Debye-Ang**3):
 XXXX=          -2099.2610 YYYY=           -609.8610 ZZZZ=           -398.8018 XXXY=             33.0899
 XXXZ=            -19.5128 YYYX=             74.5401 YYYZ=             33.6512 ZZZX=              1.4680
 ZZZY=             -1.5300 XXYY=           -612.8911 XXZZ=           -486.0390 YYZZ=           -183.4906
 XXYZ=             13.8232 YYXZ=            -23.2231 ZZXY=             24.1695
 N-N= 9.222206027122D+02 E-N=-9.052679546406D+03  KE= 3.030220915374D+03
 ******************************Gaussian NBO Version 3.1******************************
             N A T U R A L   A T O M I C   O R B I T A L   A N D
          N A T U R A L   B O N D   O R B I T A L   A N A L Y S I S
 ******************************Gaussian NBO Version 3.1******************************
       /RESON  / : Allow strongly delocalized NBO set

 Analyzing the SCF density

 Job title: These are very "NANI?                                           

 Storage needed:    606761 in NPA,    808283 in NBO (4831835568 available)
 GSVD:  LWork=       71559 too small for GESVD, short by      186248 words or      186248 for optimal perf.


 NATURAL POPULATIONS:  Natural atomic orbital occupancies 
                                                          
   NAO  Atom  No  lang   Type(AO)    Occupancy      Energy
 ----------------------------------------------------------
     1    C    1  S      Cor( 1S)     1.99916     -10.26853
     2    C    1  S      Val( 2S)     1.01778      -0.35367
     3    C    1  S      Ryd( 3S)     0.00118       1.31719
     4    C    1  S      Ryd( 4S)     0.00024       1.67151
     5    C    1  S      Ryd( 5S)     0.00000      21.27768
     6    C    1  px     Val( 2p)     0.99450      -0.13190
     7    C    1  px     Ryd( 3p)     0.00404       0.87512
     8    C    1  px     Ryd( 4p)     0.00017       3.40592
     9    C    1  py     Val( 2p)     0.64981      -0.16810
    10    C    1  py     Ryd( 3p)     0.00315       0.58079
    11    C    1  py     Ryd( 4p)     0.00014       1.71676
    12    C    1  pz     Val( 2p)     1.14317      -0.16092
    13    C    1  pz     Ryd( 3p)     0.00485       0.90997
    14    C    1  pz     Ryd( 4p)     0.00010       2.76619
    15    C    1  dxy    Ryd( 3d)     0.00106       1.40867
    16    C    1  dxy    Ryd( 4d)     0.00021       3.13971
    17    C    1  dxz    Ryd( 3d)     0.00291       1.52938
    18    C    1  dxz    Ryd( 4d)     0.00033       3.48195
    19    C    1  dyz    Ryd( 3d)     0.00037       1.29175
    20    C    1  dyz    Ryd( 4d)     0.00011       2.89717
    21    C    1  dx2y2  Ryd( 3d)     0.00181       1.63586
    22    C    1  dx2y2  Ryd( 4d)     0.00023       3.59547
    23    C    1  dz2    Ryd( 3d)     0.00182       1.60039
    24    C    1  dz2    Ryd( 4d)     0.00041       3.37120
    25    C    1  f(0)   Ryd( 4f)     0.00008       3.76710
    26    C    1  f(C1)  Ryd( 4f)     0.00009       3.96411
    27    C    1  f(S1)  Ryd( 4f)     0.00007       3.23517
    28    C    1  f(C2)  Ryd( 4f)     0.00037       3.70433
    29    C    1  f(S2)  Ryd( 4f)     0.00004       3.49803
    30    C    1  f(C3)  Ryd( 4f)     0.00018       3.70592
    31    C    1  f(S3)  Ryd( 4f)     0.00018       3.57256
 
    32    C    2  S      Cor( 1S)     1.99906     -10.28138
    33    C    2  S      Val( 2S)     1.11015      -0.43295
    34    C    2  S      Ryd( 3S)     0.00184       1.58239
    35    C    2  S      Ryd( 4S)     0.00065       1.83134
    36    C    2  S      Ryd( 5S)     0.00000      21.17741
    37    C    2  px     Val( 2p)     1.07524      -0.21936
    38    C    2  px     Ryd( 3p)     0.00379       0.93602
    39    C    2  px     Ryd( 4p)     0.00057       1.51832
    40    C    2  py     Val( 2p)     0.97150      -0.23754
    41    C    2  py     Ryd( 3p)     0.00199       0.79201
    42    C    2  py     Ryd( 4p)     0.00174       1.27445
    43    C    2  pz     Val( 2p)     1.21185      -0.22356
    44    C    2  pz     Ryd( 3p)     0.00493       1.00456
    45    C    2  pz     Ryd( 4p)     0.00163       1.51308
    46    C    2  dxy    Ryd( 3d)     0.00271       1.19712
    47    C    2  dxy    Ryd( 4d)     0.00012       3.45704
    48    C    2  dxz    Ryd( 3d)     0.00270       1.28874
    49    C    2  dxz    Ryd( 4d)     0.00015       3.50374
    50    C    2  dyz    Ryd( 3d)     0.00302       1.11712
    51    C    2  dyz    Ryd( 4d)     0.00013       3.21138
    52    C    2  dx2y2  Ryd( 3d)     0.00203       1.15451
    53    C    2  dx2y2  Ryd( 4d)     0.00023       3.41986
    54    C    2  dz2    Ryd( 3d)     0.00220       1.28116
    55    C    2  dz2    Ryd( 4d)     0.00042       3.50615
    56    C    2  f(0)   Ryd( 4f)     0.00013       3.80093
    57    C    2  f(C1)  Ryd( 4f)     0.00008       3.82340
    58    C    2  f(S1)  Ryd( 4f)     0.00006       3.28861
    59    C    2  f(C2)  Ryd( 4f)     0.00008       3.61088
    60    C    2  f(S2)  Ryd( 4f)     0.00005       3.53662
    61    C    2  f(C3)  Ryd( 4f)     0.00010       3.59792
    62    C    2  f(S3)  Ryd( 4f)     0.00010       3.49418
 
    63   Br    3  S      Cor( 1S)     2.00000    -471.85354
    64   Br    3  S      Cor( 2S)     2.00000     -70.96233
    65   Br    3  S      Cor( 3S)     1.99986     -11.71671
    66   Br    3  S      Val( 4S)     1.90402      -1.07041
    67   Br    3  S      Ryd( 5S)     0.00074       1.54400
    68   Br    3  S      Ryd( 6S)     0.00000       7.39399
    69   Br    3  px     Cor( 2p)     2.00000     -56.43171
    70   Br    3  px     Cor( 3p)     1.99997      -6.76490
    71   Br    3  px     Val( 4p)     1.82360      -0.40134
    72   Br    3  px     Ryd( 5p)     0.00086       0.48175
    73   Br    3  px     Ryd( 6p)     0.00004       1.64247
    74   Br    3  py     Cor( 2p)     2.00000     -56.43446
    75   Br    3  py     Cor( 3p)     1.99991      -6.77233
    76   Br    3  py     Val( 4p)     1.23399      -0.32332
    77   Br    3  py     Ryd( 5p)     0.00128       0.47618
    78   Br    3  py     Ryd( 6p)     0.00003       1.73324
    79   Br    3  pz     Cor( 2p)     2.00000     -56.43130
    80   Br    3  pz     Cor( 3p)     1.99999      -6.76362
    81   Br    3  pz     Val( 4p)     1.90070      -0.40899
    82   Br    3  pz     Ryd( 5p)     0.00073       0.48242
    83   Br    3  pz     Ryd( 6p)     0.00004       1.60534
    84   Br    3  dxy    Cor( 3d)     1.99989      -2.79276
    85   Br    3  dxy    Ryd( 4d)     0.00146       1.23745
    86   Br    3  dxy    Ryd( 5d)     0.00007       1.65120
    87   Br    3  dxy    Ryd( 6d)     0.00001       4.11844
    88   Br    3  dxz    Cor( 3d)     1.99998      -2.78452
    89   Br    3  dxz    Ryd( 4d)     0.00026       0.82729
    90   Br    3  dxz    Ryd( 5d)     0.00010       1.37584
    91   Br    3  dxz    Ryd( 6d)     0.00000       4.03041
    92   Br    3  dyz    Cor( 3d)     1.99990      -2.79168
    93   Br    3  dyz    Ryd( 4d)     0.00090       1.15222
    94   Br    3  dyz    Ryd( 5d)     0.00013       1.58233
    95   Br    3  dyz    Ryd( 6d)     0.00001       4.08637
    96   Br    3  dx2y2  Cor( 3d)     1.99985      -2.79268
    97   Br    3  dx2y2  Ryd( 4d)     0.00154       1.30361
    98   Br    3  dx2y2  Ryd( 5d)     0.00006       1.58477
    99   Br    3  dx2y2  Ryd( 6d)     0.00001       4.13897
   100   Br    3  dz2    Cor( 3d)     1.99995      -2.78652
   101   Br    3  dz2    Ryd( 4d)     0.00076       0.98634
   102   Br    3  dz2    Ryd( 5d)     0.00004       1.38895
   103   Br    3  dz2    Ryd( 6d)     0.00000       4.06675
   104   Br    3  f(0)   Ryd( 4f)     0.00004       1.68941
   105   Br    3  f(C1)  Ryd( 4f)     0.00002       1.63716
   106   Br    3  f(S1)  Ryd( 4f)     0.00007       1.76331
   107   Br    3  f(C2)  Ryd( 4f)     0.00004       1.75579
   108   Br    3  f(S2)  Ryd( 4f)     0.00005       1.72966
   109   Br    3  f(C3)  Ryd( 4f)     0.00007       1.82051
   110   Br    3  f(S3)  Ryd( 4f)     0.00010       1.82360
 
   111    C    4  S      Cor( 1S)     1.99943     -10.30532
   112    C    4  S      Val( 2S)     0.89030      -0.26697
   113    C    4  S      Ryd( 4S)     0.00565       1.40021
   114    C    4  S      Ryd( 3S)     0.00020       1.08547
   115    C    4  S      Ryd( 5S)     0.00001      21.77537
   116    C    4  px     Val( 2p)     0.88799      -0.12481
   117    C    4  px     Ryd( 3p)     0.00279       1.11417
   118    C    4  px     Ryd( 4p)     0.00014       1.38029
   119    C    4  py     Val( 2p)     0.77076      -0.11945
   120    C    4  py     Ryd( 3p)     0.00463       0.97139
   121    C    4  py     Ryd( 4p)     0.00025       1.31643
   122    C    4  pz     Val( 2p)     0.82182      -0.06846
   123    C    4  pz     Ryd( 3p)     0.01245       1.15097
   124    C    4  pz     Ryd( 4p)     0.00019       1.68143
   125    C    4  dxy    Ryd( 4d)     0.00058       3.40907
   126    C    4  dxy    Ryd( 3d)     0.00018       2.85702
   127    C    4  dxz    Ryd( 4d)     0.00117       3.57915
   128    C    4  dxz    Ryd( 3d)     0.00019       2.89535
   129    C    4  dyz    Ryd( 4d)     0.00076       3.48959
   130    C    4  dyz    Ryd( 3d)     0.00014       2.64384
   131    C    4  dx2y2  Ryd( 4d)     0.00037       3.06893
   132    C    4  dx2y2  Ryd( 3d)     0.00007       2.52235
   133    C    4  dz2    Ryd( 4d)     0.00093       3.65519
   134    C    4  dz2    Ryd( 3d)     0.00017       2.73754
   135    C    4  f(0)   Ryd( 4f)     0.00003       3.88467
   136    C    4  f(C1)  Ryd( 4f)     0.00006       3.92467
   137    C    4  f(S1)  Ryd( 4f)     0.00005       3.73060
   138    C    4  f(C2)  Ryd( 4f)     0.00004       3.59653
   139    C    4  f(S2)  Ryd( 4f)     0.00004       3.76554
   140    C    4  f(C3)  Ryd( 4f)     0.00005       3.41715
   141    C    4  f(S3)  Ryd( 4f)     0.00003       3.47683
 
   142    O    5  S      Cor( 1S)     1.99976     -18.99347
   143    O    5  S      Val( 2S)     1.69110      -1.03463
   144    O    5  S      Ryd( 3S)     0.00049       1.81721
   145    O    5  S      Ryd( 4S)     0.00003       3.86157
   146    O    5  S      Ryd( 5S)     0.00000      42.48377
   147    O    5  px     Val( 2p)     1.71822      -0.37077
   148    O    5  px     Ryd( 3p)     0.00214       0.78523
   149    O    5  px     Ryd( 4p)     0.00005       3.09064
   150    O    5  py     Val( 2p)     1.51792      -0.35693
   151    O    5  py     Ryd( 3p)     0.00111       0.70445
   152    O    5  py     Ryd( 4p)     0.00007       3.14989
   153    O    5  pz     Val( 2p)     1.57412      -0.39667
   154    O    5  pz     Ryd( 3p)     0.00094       0.67187
   155    O    5  pz     Ryd( 4p)     0.00015       3.76053
   156    O    5  dxy    Ryd( 3d)     0.00098       1.63154
   157    O    5  dxy    Ryd( 4d)     0.00002       6.37065
   158    O    5  dxz    Ryd( 3d)     0.00380       1.80765
   159    O    5  dxz    Ryd( 4d)     0.00005       6.52943
   160    O    5  dyz    Ryd( 3d)     0.00662       1.91742
   161    O    5  dyz    Ryd( 4d)     0.00001       6.58304
   162    O    5  dx2y2  Ryd( 3d)     0.00134       1.59995
   163    O    5  dx2y2  Ryd( 4d)     0.00001       6.33898
   164    O    5  dz2    Ryd( 3d)     0.00765       1.97721
   165    O    5  dz2    Ryd( 4d)     0.00001       6.63438
   166    O    5  f(0)   Ryd( 4f)     0.00023       5.87019
   167    O    5  f(C1)  Ryd( 4f)     0.00016       5.67350
   168    O    5  f(S1)  Ryd( 4f)     0.00016       5.96609
   169    O    5  f(C2)  Ryd( 4f)     0.00010       5.53871
   170    O    5  f(S2)  Ryd( 4f)     0.00010       5.54505
   171    O    5  f(C3)  Ryd( 4f)     0.00001       5.27122
   172    O    5  f(S3)  Ryd( 4f)     0.00002       5.27249
 
   173    C    6  S      Cor( 1S)     1.99908     -10.21265
   174    C    6  S      Val( 2S)     0.92694      -0.27194
   175    C    6  S      Ryd( 3S)     0.00121       1.38615
   176    C    6  S      Ryd( 4S)     0.00020       1.71707
   177    C    6  S      Ryd( 5S)     0.00000      21.22002
   178    C    6  px     Val( 2p)     1.09524      -0.16516
   179    C    6  px     Ryd( 3p)     0.00685       1.20203
   180    C    6  px     Ryd( 4p)     0.00033       1.65657
   181    C    6  py     Val( 2p)     1.05501      -0.18832
   182    C    6  py     Ryd( 3p)     0.00111       0.77574
   183    C    6  py     Ryd( 4p)     0.00005       1.32639
   184    C    6  pz     Val( 2p)     1.09845      -0.15651
   185    C    6  pz     Ryd( 3p)     0.00491       1.20106
   186    C    6  pz     Ryd( 4p)     0.00040       1.49447
   187    C    6  dxy    Ryd( 3d)     0.00040       1.17831
   188    C    6  dxy    Ryd( 4d)     0.00011       3.39551
   189    C    6  dxz    Ryd( 3d)     0.00179       2.00204
   190    C    6  dxz    Ryd( 4d)     0.00076       3.71052
   191    C    6  dyz    Ryd( 3d)     0.00014       1.25019
   192    C    6  dyz    Ryd( 4d)     0.00035       3.38695
   193    C    6  dx2y2  Ryd( 3d)     0.00086       1.77125
   194    C    6  dx2y2  Ryd( 4d)     0.00032       3.65794
   195    C    6  dz2    Ryd( 3d)     0.00158       1.91753
   196    C    6  dz2    Ryd( 4d)     0.00062       3.63395
   197    C    6  f(0)   Ryd( 4f)     0.00006       4.03568
   198    C    6  f(C1)  Ryd( 4f)     0.00005       4.36768
   199    C    6  f(S1)  Ryd( 4f)     0.00006       3.56948
   200    C    6  f(C2)  Ryd( 4f)     0.00007       3.97171
   201    C    6  f(S2)  Ryd( 4f)     0.00001       3.62171
   202    C    6  f(C3)  Ryd( 4f)     0.00007       3.81297
   203    C    6  f(S3)  Ryd( 4f)     0.00010       3.55781
 
   204    C    7  S      Cor( 1S)     1.99917     -10.21145
   205    C    7  S      Val( 2S)     0.99271      -0.29408
   206    C    7  S      Ryd( 3S)     0.00103       1.32096
   207    C    7  S      Ryd( 4S)     0.00024       1.46634
   208    C    7  S      Ryd( 5S)     0.00000      21.42290
   209    C    7  px     Val( 2p)     1.04500      -0.11518
   210    C    7  px     Ryd( 3p)     0.00321       1.12118
   211    C    7  px     Ryd( 4p)     0.00021       2.69470
   212    C    7  py     Val( 2p)     0.84398      -0.15528
   213    C    7  py     Ryd( 3p)     0.00091       0.68840
   214    C    7  py     Ryd( 4p)     0.00036       1.45168
   215    C    7  pz     Val( 2p)     1.13301      -0.12816
   216    C    7  pz     Ryd( 3p)     0.00398       1.09787
   217    C    7  pz     Ryd( 4p)     0.00016       2.56288
   218    C    7  dxy    Ryd( 3d)     0.00044       1.40250
   219    C    7  dxy    Ryd( 4d)     0.00016       3.05103
   220    C    7  dxz    Ryd( 3d)     0.00278       1.64475
   221    C    7  dxz    Ryd( 4d)     0.00064       3.52615
   222    C    7  dyz    Ryd( 3d)     0.00041       1.35095
   223    C    7  dyz    Ryd( 4d)     0.00011       2.95241
   224    C    7  dx2y2  Ryd( 3d)     0.00115       1.64228
   225    C    7  dx2y2  Ryd( 4d)     0.00014       3.53802
   226    C    7  dz2    Ryd( 3d)     0.00099       1.80934
   227    C    7  dz2    Ryd( 4d)     0.00048       3.42384
   228    C    7  f(0)   Ryd( 4f)     0.00011       3.78552
   229    C    7  f(C1)  Ryd( 4f)     0.00011       4.15853
   230    C    7  f(S1)  Ryd( 4f)     0.00011       3.34777
   231    C    7  f(C2)  Ryd( 4f)     0.00021       3.76940
   232    C    7  f(S2)  Ryd( 4f)     0.00004       3.52354
   233    C    7  f(C3)  Ryd( 4f)     0.00014       3.69976
   234    C    7  f(S3)  Ryd( 4f)     0.00019       3.51245
 
   235    C    8  S      Cor( 1S)     1.99920     -10.18775
   236    C    8  S      Val( 2S)     0.99110      -0.28320
   237    C    8  S      Ryd( 3S)     0.00106       1.10700
   238    C    8  S      Ryd( 4S)     0.00018       1.46608
   239    C    8  S      Ryd( 5S)     0.00000      21.51141
   240    C    8  px     Val( 2p)     1.11871      -0.12738
   241    C    8  px     Ryd( 3p)     0.00424       1.13717
   242    C    8  px     Ryd( 4p)     0.00025       2.15588
   243    C    8  py     Val( 2p)     0.98750      -0.16187
   244    C    8  py     Ryd( 3p)     0.00086       0.75640
   245    C    8  py     Ryd( 4p)     0.00041       1.31108
   246    C    8  pz     Val( 2p)     1.12228      -0.13017
   247    C    8  pz     Ryd( 3p)     0.00392       1.15163
   248    C    8  pz     Ryd( 4p)     0.00018       2.07723
   249    C    8  dxy    Ryd( 3d)     0.00033       1.36856
   250    C    8  dxy    Ryd( 4d)     0.00016       2.99417
   251    C    8  dxz    Ryd( 3d)     0.00114       1.92259
   252    C    8  dxz    Ryd( 4d)     0.00078       3.64303
   253    C    8  dyz    Ryd( 3d)     0.00041       1.37117
   254    C    8  dyz    Ryd( 4d)     0.00007       2.99532
   255    C    8  dx2y2  Ryd( 3d)     0.00125       1.61316
   256    C    8  dx2y2  Ryd( 4d)     0.00017       3.36405
   257    C    8  dz2    Ryd( 3d)     0.00203       1.64817
   258    C    8  dz2    Ryd( 4d)     0.00035       3.33997
   259    C    8  f(0)   Ryd( 4f)     0.00008       3.89455
   260    C    8  f(C1)  Ryd( 4f)     0.00008       4.13794
   261    C    8  f(S1)  Ryd( 4f)     0.00011       3.50025
   262    C    8  f(C2)  Ryd( 4f)     0.00016       3.75458
   263    C    8  f(S2)  Ryd( 4f)     0.00002       3.40636
   264    C    8  f(C3)  Ryd( 4f)     0.00016       3.70733
   265    C    8  f(S3)  Ryd( 4f)     0.00016       3.45704
 
   266    C    9  S      Cor( 1S)     1.99926     -10.21496
   267    C    9  S      Val( 2S)     1.00868      -0.30569
   268    C    9  S      Ryd( 3S)     0.00077       1.10338
   269    C    9  S      Ryd( 4S)     0.00017       1.46333
   270    C    9  S      Ryd( 5S)     0.00000      21.58913
   271    C    9  px     Val( 2p)     1.17103      -0.13153
   272    C    9  px     Ryd( 3p)     0.00463       1.19165
   273    C    9  px     Ryd( 4p)     0.00007       2.16842
   274    C    9  py     Val( 2p)     0.80391      -0.14833
   275    C    9  py     Ryd( 3p)     0.00050       0.76427
   276    C    9  py     Ryd( 4p)     0.00027       1.31524
   277    C    9  pz     Val( 2p)     1.02588      -0.10679
   278    C    9  pz     Ryd( 3p)     0.00307       1.01972
   279    C    9  pz     Ryd( 4p)     0.00025       2.35585
   280    C    9  dxy    Ryd( 3d)     0.00060       1.34267
   281    C    9  dxy    Ryd( 4d)     0.00005       2.82773
   282    C    9  dxz    Ryd( 3d)     0.00218       1.72585
   283    C    9  dxz    Ryd( 4d)     0.00051       3.38522
   284    C    9  dyz    Ryd( 3d)     0.00025       1.48916
   285    C    9  dyz    Ryd( 4d)     0.00019       3.02765
   286    C    9  dx2y2  Ryd( 3d)     0.00079       1.66011
   287    C    9  dx2y2  Ryd( 4d)     0.00030       3.25636
   288    C    9  dz2    Ryd( 3d)     0.00133       1.86244
   289    C    9  dz2    Ryd( 4d)     0.00045       3.54004
   290    C    9  f(0)   Ryd( 4f)     0.00011       3.91451
   291    C    9  f(C1)  Ryd( 4f)     0.00009       4.18535
   292    C    9  f(S1)  Ryd( 4f)     0.00009       3.55288
   293    C    9  f(C2)  Ryd( 4f)     0.00009       3.74775
   294    C    9  f(S2)  Ryd( 4f)     0.00003       3.52200
   295    C    9  f(C3)  Ryd( 4f)     0.00019       3.46971
   296    C    9  f(S3)  Ryd( 4f)     0.00010       3.22312
 
   297    C   10  S      Cor( 1S)     1.99922     -10.18945
   298    C   10  S      Val( 2S)     0.99071      -0.28383
   299    C   10  S      Ryd( 3S)     0.00107       1.12539
   300    C   10  S      Ryd( 4S)     0.00017       1.47201
   301    C   10  S      Ryd( 5S)     0.00000      21.53867
   302    C   10  px     Val( 2p)     1.06084      -0.11905
   303    C   10  px     Ryd( 3p)     0.00381       1.07421
   304    C   10  px     Ryd( 4p)     0.00028       2.16093
   305    C   10  py     Val( 2p)     0.98634      -0.16224
   306    C   10  py     Ryd( 3p)     0.00089       0.75653
   307    C   10  py     Ryd( 4p)     0.00039       1.32151
   308    C   10  pz     Val( 2p)     1.17170      -0.13724
   309    C   10  pz     Ryd( 3p)     0.00439       1.20180
   310    C   10  pz     Ryd( 4p)     0.00014       2.04919
   311    C   10  dxy    Ryd( 3d)     0.00018       1.41490
   312    C   10  dxy    Ryd( 4d)     0.00019       3.03738
   313    C   10  dxz    Ryd( 3d)     0.00195       1.77909
   314    C   10  dxz    Ryd( 4d)     0.00058       3.50172
   315    C   10  dyz    Ryd( 3d)     0.00049       1.33808
   316    C   10  dyz    Ryd( 4d)     0.00007       2.94444
   317    C   10  dx2y2  Ryd( 3d)     0.00105       1.67733
   318    C   10  dx2y2  Ryd( 4d)     0.00017       3.46416
   319    C   10  dz2    Ryd( 3d)     0.00142       1.72581
   320    C   10  dz2    Ryd( 4d)     0.00053       3.38309
   321    C   10  f(0)   Ryd( 4f)     0.00008       3.77727
   322    C   10  f(C1)  Ryd( 4f)     0.00007       4.16688
   323    C   10  f(S1)  Ryd( 4f)     0.00010       3.35146
   324    C   10  f(C2)  Ryd( 4f)     0.00018       3.78240
   325    C   10  f(S2)  Ryd( 4f)     0.00002       3.51235
   326    C   10  f(C3)  Ryd( 4f)     0.00013       3.73929
   327    C   10  f(S3)  Ryd( 4f)     0.00018       3.52128
 
   328    C   11  S      Cor( 1S)     1.99914     -10.21028
   329    C   11  S      Val( 2S)     0.98751      -0.28969
   330    C   11  S      Ryd( 3S)     0.00112       1.32606
   331    C   11  S      Ryd( 4S)     0.00021       1.54133
   332    C   11  S      Ryd( 5S)     0.00000      21.36671
   333    C   11  px     Val( 2p)     1.11578      -0.13242
   334    C   11  px     Ryd( 3p)     0.00349       1.18104
   335    C   11  px     Ryd( 4p)     0.00015       2.41844
   336    C   11  py     Val( 2p)     0.86057      -0.15707
   337    C   11  py     Ryd( 3p)     0.00092       0.69377
   338    C   11  py     Ryd( 4p)     0.00040       1.48007
   339    C   11  pz     Val( 2p)     1.07767      -0.11471
   340    C   11  pz     Ryd( 3p)     0.00317       1.04697
   341    C   11  pz     Ryd( 4p)     0.00022       2.74491
   342    C   11  dxy    Ryd( 3d)     0.00046       1.37160
   343    C   11  dxy    Ryd( 4d)     0.00014       3.01283
   344    C   11  dxz    Ryd( 3d)     0.00146       1.97767
   345    C   11  dxz    Ryd( 4d)     0.00078       3.68305
   346    C   11  dyz    Ryd( 3d)     0.00042       1.37869
   347    C   11  dyz    Ryd( 4d)     0.00013       3.01688
   348    C   11  dx2y2  Ryd( 3d)     0.00138       1.57644
   349    C   11  dx2y2  Ryd( 4d)     0.00013       3.39316
   350    C   11  dz2    Ryd( 3d)     0.00223       1.56934
   351    C   11  dz2    Ryd( 4d)     0.00031       3.39190
   352    C   11  f(0)   Ryd( 4f)     0.00015       3.83349
   353    C   11  f(C1)  Ryd( 4f)     0.00011       4.18982
   354    C   11  f(S1)  Ryd( 4f)     0.00015       3.49183
   355    C   11  f(C2)  Ryd( 4f)     0.00019       3.75920
   356    C   11  f(S2)  Ryd( 4f)     0.00004       3.44095
   357    C   11  f(C3)  Ryd( 4f)     0.00016       3.64687
   358    C   11  f(S3)  Ryd( 4f)     0.00014       3.45167
 
   359    C   12  S      Cor( 1S)     1.99936     -10.16872
   360    C   12  S      Val( 2S)     1.13851      -0.36700
   361    C   12  S      Ryd( 3S)     0.00040       1.48127
   362    C   12  S      Ryd( 4S)     0.00014       2.19372
   363    C   12  S      Ryd( 5S)     0.00000      21.16636
   364    C   12  px     Val( 2p)     1.17762      -0.16642
   365    C   12  px     Ryd( 3p)     0.00059       0.98433
   366    C   12  px     Ryd( 4p)     0.00033       1.54512
   367    C   12  py     Val( 2p)     1.23418      -0.17208
   368    C   12  py     Ryd( 3p)     0.00059       0.98331
   369    C   12  py     Ryd( 4p)     0.00007       1.37260
   370    C   12  pz     Val( 2p)     1.15831      -0.16307
   371    C   12  pz     Ryd( 3p)     0.00093       0.91862
   372    C   12  pz     Ryd( 4p)     0.00008       1.48039
   373    C   12  dxy    Ryd( 3d)     0.00149       1.43261
   374    C   12  dxy    Ryd( 4d)     0.00006       3.08558
   375    C   12  dxz    Ryd( 3d)     0.00367       1.56785
   376    C   12  dxz    Ryd( 4d)     0.00004       3.15844
   377    C   12  dyz    Ryd( 3d)     0.00150       1.47097
   378    C   12  dyz    Ryd( 4d)     0.00009       3.05775
   379    C   12  dx2y2  Ryd( 3d)     0.00198       1.32072
   380    C   12  dx2y2  Ryd( 4d)     0.00009       2.95541
   381    C   12  dz2    Ryd( 3d)     0.00052       1.36499
   382    C   12  dz2    Ryd( 4d)     0.00007       2.97365
   383    C   12  f(0)   Ryd( 4f)     0.00003       3.58316
   384    C   12  f(C1)  Ryd( 4f)     0.00010       3.64450
   385    C   12  f(S1)  Ryd( 4f)     0.00004       3.41690
   386    C   12  f(C2)  Ryd( 4f)     0.00011       3.56326
   387    C   12  f(S2)  Ryd( 4f)     0.00018       3.73334
   388    C   12  f(C3)  Ryd( 4f)     0.00002       3.39843
   389    C   12  f(S3)  Ryd( 4f)     0.00008       3.55324
 
   390    H   13  S      Val( 1S)     0.73956       0.01172
   391    H   13  S      Ryd( 3S)     0.00111       1.51507
   392    H   13  S      Ryd( 2S)     0.00012       1.42435
   393    H   13  px     Ryd( 2p)     0.00014       2.82553
   394    H   13  py     Ryd( 2p)     0.00010       2.24241
   395    H   13  pz     Ryd( 2p)     0.00040       3.01887
 
   396    H   14  S      Val( 1S)     0.72609       0.00139
   397    H   14  S      Ryd( 2S)     0.00070       1.42581
   398    H   14  S      Ryd( 3S)     0.00013       1.46855
   399    H   14  px     Ryd( 2p)     0.00019       2.57243
   400    H   14  py     Ryd( 2p)     0.00014       2.33894
   401    H   14  pz     Ryd( 2p)     0.00045       3.17682
 
   402    H   15  S      Val( 1S)     0.75277       0.01845
   403    H   15  S      Ryd( 3S)     0.00037       1.49453
   404    H   15  S      Ryd( 2S)     0.00016       1.45123
   405    H   15  px     Ryd( 2p)     0.00014       2.83781
   406    H   15  py     Ryd( 2p)     0.00011       2.24265
   407    H   15  pz     Ryd( 2p)     0.00040       3.02501
 
   408    H   16  S      Val( 1S)     0.74761       0.03100
   409    H   16  S      Ryd( 2S)     0.00028       1.03701
   410    H   16  S      Ryd( 3S)     0.00019       1.79017
   411    H   16  px     Ryd( 2p)     0.00021       2.95245
   412    H   16  py     Ryd( 2p)     0.00010       2.23527
   413    H   16  pz     Ryd( 2p)     0.00025       2.95114
 
   414    H   17  S      Val( 1S)     0.75443       0.02482
   415    H   17  S      Ryd( 2S)     0.00024       0.98821
   416    H   17  S      Ryd( 3S)     0.00017       1.83643
   417    H   17  px     Ryd( 2p)     0.00041       3.07029
   418    H   17  py     Ryd( 2p)     0.00009       2.22033
   419    H   17  pz     Ryd( 2p)     0.00009       2.80523
 
   420    H   18  S      Val( 1S)     0.74865       0.03008
   421    H   18  S      Ryd( 2S)     0.00030       1.00495
   422    H   18  S      Ryd( 3S)     0.00019       1.81874
   423    H   18  px     Ryd( 2p)     0.00010       2.85337
   424    H   18  py     Ryd( 2p)     0.00011       2.24355
   425    H   18  pz     Ryd( 2p)     0.00035       3.04645
 
   426    H   19  S      Val( 1S)     0.75833       0.01350
   427    H   19  S      Ryd( 2S)     0.00052       1.44454
   428    H   19  S      Ryd( 3S)     0.00013       1.57593
   429    H   19  px     Ryd( 2p)     0.00025       2.96105
   430    H   19  py     Ryd( 2p)     0.00011       2.24331
   431    H   19  pz     Ryd( 2p)     0.00034       2.95454
 
   432    H   20  S      Val( 1S)     0.74821       0.01154
   433    H   20  S      Ryd( 2S)     0.00021       1.12991
   434    H   20  S      Ryd( 3S)     0.00010       1.45588
   435    H   20  px     Ryd( 2p)     0.00012       2.35371
   436    H   20  py     Ryd( 2p)     0.00018       2.77920
   437    H   20  pz     Ryd( 2p)     0.00011       2.44676
 
   438    H   21  S      Val( 1S)     0.73836       0.00929
   439    H   21  S      Ryd( 3S)     0.00022       1.64161
   440    H   21  S      Ryd( 2S)     0.00006       0.88860
   441    H   21  px     Ryd( 2p)     0.00012       2.39438
   442    H   21  py     Ryd( 2p)     0.00014       2.43664
   443    H   21  pz     Ryd( 2p)     0.00015       2.68870
 
   444    H   22  S      Val( 1S)     0.74701       0.02437
   445    H   22  S      Ryd( 3S)     0.00038       1.45908
   446    H   22  S      Ryd( 2S)     0.00009       1.06144
   447    H   22  px     Ryd( 2p)     0.00024       2.83432
   448    H   22  py     Ryd( 2p)     0.00015       2.41532
   449    H   22  pz     Ryd( 2p)     0.00009       2.38186

 WARNING:  Population inversion found on atom  C    4
           Population inversion found on atom  C    6
           Population inversion found on atom  C   10
           Population inversion found on atom  H   13
           Population inversion found on atom  H   15
           Population inversion found on atom  H   21
           Population inversion found on atom  H   22


 Summary of Natural Population Analysis:                  
                                                          
                                       Natural Population 
                Natural  -----------------------------------------------
    Atom  No    Charge         Core      Valence    Rydberg      Total
 -----------------------------------------------------------------------
      C    1    0.17143      1.99916     3.80526    0.02414     5.82857
      C    2   -0.39923      1.99906     4.36873    0.03144     6.39923
     Br    3    0.12890     27.99930     6.86231    0.00949    34.87110
      C    4    0.59852      1.99943     3.37087    0.03118     5.40148
      O    5   -0.52738      1.99976     6.50137    0.02625     8.52738
      C    6   -0.19714      1.99908     4.17564    0.02242     6.19714
      C    7   -0.03220      1.99917     4.01470    0.01833     6.03220
      C    8   -0.23736      1.99920     4.21959    0.01857     6.23736
      C    9   -0.02582      1.99926     4.00949    0.01707     6.02582
      C   10   -0.22732      1.99922     4.20958    0.01852     6.22732
      C   11   -0.05874      1.99914     4.04152    0.01808     6.05874
      C   12   -0.72120      1.99936     4.70862    0.01321     6.72120
      H   13    0.25857      0.00000     0.73956    0.00187     0.74143
      H   14    0.27230      0.00000     0.72609    0.00161     0.72770
      H   15    0.24604      0.00000     0.75277    0.00118     0.75396
      H   16    0.25136      0.00000     0.74761    0.00103     0.74864
      H   17    0.24457      0.00000     0.75443    0.00100     0.75543
      H   18    0.25031      0.00000     0.74865    0.00104     0.74969
      H   19    0.24032      0.00000     0.75833    0.00136     0.75968
      H   20    0.25107      0.00000     0.74821    0.00072     0.74893
      H   21    0.26095      0.00000     0.73836    0.00069     0.73905
      H   22    0.25205      0.00000     0.74701    0.00095     0.74795
 =======================================================================
   * Total *    1.00000     49.99114    61.74871    0.26016   112.00000

                                 Natural Population      
 --------------------------------------------------------
   Core                      49.99114 ( 99.9823% of  50)
   Valence                   61.74871 ( 99.5947% of  62)
   Natural Minimal Basis    111.73984 ( 99.7677% of 112)
   Natural Rydberg Basis      0.26016 (  0.2323% of 112)
 --------------------------------------------------------

    Atom  No          Natural Electron Configuration
 ----------------------------------------------------------------------------
      C    1      [core]2S( 1.02)2p( 2.79)3p( 0.01)3d( 0.01)
      C    2      [core]2S( 1.11)2p( 3.26)3p( 0.01)3d( 0.01)
     Br    3      [core]4S( 1.90)4p( 4.96)
      C    4      [core]2S( 0.89)2p( 2.48)3p( 0.02)4S( 0.01)
      O    5      [core]2S( 1.69)2p( 4.81)3d( 0.02)
      C    6      [core]2S( 0.93)2p( 3.25)3p( 0.01)
      C    7      [core]2S( 0.99)2p( 3.02)3p( 0.01)3d( 0.01)
      C    8      [core]2S( 0.99)2p( 3.23)3p( 0.01)3d( 0.01)
      C    9      [core]2S( 1.01)2p( 3.00)3p( 0.01)3d( 0.01)
      C   10      [core]2S( 0.99)2p( 3.22)3p( 0.01)3d( 0.01)
      C   11      [core]2S( 0.99)2p( 3.05)3p( 0.01)3d( 0.01)
      C   12      [core]2S( 1.14)2p( 3.57)3d( 0.01)
      H   13            1S( 0.74)
      H   14            1S( 0.73)
      H   15            1S( 0.75)
      H   16            1S( 0.75)
      H   17            1S( 0.75)
      H   18            1S( 0.75)
      H   19            1S( 0.76)
      H   20            1S( 0.75)
      H   21            1S( 0.74)
      H   22            1S( 0.75)


 NATURAL BOND ORBITAL ANALYSIS:

                       Occupancies       Lewis Structure    Low   High
           Occ.    -------------------  -----------------   occ   occ
  Cycle   Thresh.   Lewis   Non-Lewis     CR  BD  3C  LP    (L)   (NL)   Dev
 =============================================================================
   1(1)    1.90   107.83448   4.16552     25  24   0   7     5      5    0.55
   2(2)    1.90   107.83448   4.16552     25  24   0   7     5      5    0.55
   3(1)    1.80   108.21367   3.78633     25  23   0   8     3      4    0.55
   4(2)    1.80   108.21367   3.78633     25  23   0   8     3      4    0.55
   5(1)    1.70   108.21367   3.78633     25  23   0   8     3      4    0.55
   6(2)    1.70   108.21367   3.78633     25  23   0   8     3      4    0.55
   7(1)    1.60   109.53382   2.46618     25  25   0   6     1      4    0.45
   8(2)    1.60   109.53382   2.46618     25  25   0   6     1      4    0.45
   9(1)    1.50   110.02743   1.97257     25  26   0   5     0      4    0.39
  10(2)    1.50   109.91989   2.08011     25  26   0   5     0      4    0.52
  11(3)    1.50   110.02743   1.97257     25  26   0   5     0      4    0.39
 -----------------------------------------------------------------------------

 Structure accepted: RESONANCE keyword permits strongly delocalized structure

 --------------------------------------------------------
   Core                     49.99116 ( 99.982% of  50)
   Valence Lewis            60.03626 ( 96.833% of  62)
  ==================       ============================
   Total Lewis             110.02743 ( 98.239% of 112)
  -----------------------------------------------------
   Valence non-Lewis         1.82138 (  1.626% of 112)
   Rydberg non-Lewis         0.15119 (  0.135% of 112)
  ==================       ============================
   Total non-Lewis           1.97257 (  1.761% of 112)
 --------------------------------------------------------


       (Occupancy)   Bond orbital/ Coefficients/ Hybrids
 ---------------------------------------------------------------------------------
     1. (1.98579) BD ( 1) C   1 - C   2  
                ( 48.51%)   0.6965* C   1 s( 33.47%)p 1.98( 66.34%)d 0.01(  0.17%)
                                                  f 0.00(  0.02%)
                                            0.0000  0.5785  0.0083  0.0011  0.0003
                                           -0.6279  0.0057  0.0066 -0.0451 -0.0011
                                           -0.0011  0.5167 -0.0016 -0.0011  0.0057
                                           -0.0023 -0.0364 -0.0039 -0.0035 -0.0000
                                            0.0156  0.0031  0.0063  0.0017 -0.0036
                                           -0.0041 -0.0012  0.0120  0.0007 -0.0066
                                           -0.0009
                ( 51.49%)   0.7176* C   2 s( 30.91%)p 2.23( 68.98%)d 0.00(  0.11%)
                                                  f 0.00(  0.00%)
                                            0.0001  0.5555  0.0216  0.0003  0.0003
                                            0.6699 -0.0181  0.0051  0.0726 -0.0079
                                            0.0032 -0.4851  0.0040 -0.0031 -0.0025
                                            0.0030 -0.0296 -0.0056  0.0037 -0.0029
                                            0.0110  0.0062  0.0018  0.0010  0.0047
                                            0.0037 -0.0014  0.0008  0.0009  0.0026
                                            0.0014
     2. (1.98382) BD ( 1) C   1 - C   6  
                ( 48.17%)   0.6940* C   1 s( 37.36%)p 1.67( 62.37%)d 0.01(  0.26%)
                                                  f 0.00(  0.02%)
                                            0.0000  0.6112  0.0064  0.0021 -0.0005
                                            0.7500 -0.0098 -0.0078 -0.1159 -0.0008
                                            0.0020  0.2183  0.0029 -0.0007 -0.0114
                                           -0.0008  0.0280  0.0002 -0.0033 -0.0006
                                            0.0335  0.0050 -0.0218 -0.0002 -0.0046
                                           -0.0044  0.0003  0.0060 -0.0023  0.0102
                                           -0.0040
                ( 51.83%)   0.7199* C   6 s( 34.25%)p 1.92( 65.70%)d 0.00(  0.05%)
                                                  f 0.00(  0.00%)
                                           -0.0000  0.5852  0.0075  0.0024  0.0005
                                           -0.7868 -0.0029  0.0007  0.0803 -0.0005
                                           -0.0006 -0.1776  0.0011  0.0006 -0.0011
                                           -0.0032  0.0044  0.0064  0.0021 -0.0004
                                            0.0064  0.0126 -0.0111 -0.0076  0.0006
                                            0.0017  0.0002 -0.0017  0.0008 -0.0043
                                            0.0012
     3. (1.54649) BD ( 2) C   1 - C   6  
                ( 35.01%)   0.5917* C   1 s(  0.00%)p 1.00( 99.84%)d 0.00(  0.12%)
                                                  f 0.00(  0.03%)
                                           -0.0001  0.0015  0.0065 -0.0009  0.0003
                                            0.0924  0.0027  0.0008  0.9755 -0.0051
                                            0.0091  0.1956 -0.0040  0.0011  0.0274
                                            0.0066  0.0090 -0.0001  0.0125  0.0014
                                            0.0111 -0.0002  0.0053 -0.0006  0.0020
                                            0.0013  0.0034  0.0058  0.0020  0.0047
                                            0.0162
                ( 64.99%)   0.8062* C   6 s(  0.01%)p 1.00( 99.96%)d 0.00(  0.01%)
                                                  f 0.00(  0.02%)
                                           -0.0000  0.0077 -0.0007 -0.0004  0.0001
                                            0.0637  0.0020  0.0011  0.9803 -0.0074
                                            0.0014  0.1860 -0.0012  0.0011 -0.0092
                                           -0.0049 -0.0023 -0.0015 -0.0019 -0.0019
                                           -0.0025 -0.0014 -0.0006 -0.0005  0.0031
                                            0.0005  0.0058  0.0045 -0.0002  0.0025
                                            0.0093
     4. (1.97197) BD ( 1) C   1 - H  13  
                ( 62.95%)   0.7934* C   1 s( 29.10%)p 2.43( 70.78%)d 0.00(  0.10%)
                                                  f 0.00(  0.02%)
                                            0.0003 -0.5393  0.0117  0.0030 -0.0004
                                            0.1773  0.0030 -0.0005 -0.1769 -0.0022
                                            0.0000  0.8030  0.0174  0.0054 -0.0027
                                            0.0023 -0.0095 -0.0030  0.0053  0.0038
                                            0.0097  0.0025 -0.0262 -0.0067  0.0048
                                            0.0032 -0.0068  0.0104 -0.0033  0.0002
                                           -0.0025
                ( 37.05%)   0.6087* H  13 s( 99.95%)p 0.00(  0.05%)
                                           -0.9997 -0.0033  0.0002 -0.0034  0.0048
                                           -0.0222
     5. (1.90499) BD ( 1) C   2 -Br   3  
                ( 49.28%)   0.7020* C   2 s( 13.91%)p 6.17( 85.77%)d 0.02(  0.32%)
                                                  f 0.00(  0.01%)
                                            0.0003 -0.3719  0.0233  0.0155 -0.0004
                                            0.3577 -0.0041 -0.0144  0.8305 -0.0045
                                           -0.0380  0.1941  0.0215 -0.0129 -0.0256
                                            0.0027 -0.0023 -0.0004 -0.0372  0.0041
                                            0.0268 -0.0012  0.0199 -0.0014 -0.0048
                                           -0.0016 -0.0024 -0.0034  0.0020 -0.0038
                                           -0.0036
                ( 50.72%)   0.7122*Br   3 s(  9.27%)p 9.76( 90.46%)d 0.03(  0.27%)
                                                  f 0.00(  0.01%)
                                            0.0000  0.0000 -0.0003 -0.3036 -0.0221
                                           -0.0006 -0.0000  0.0004 -0.3271  0.0100
                                           -0.0012 -0.0000  0.0007 -0.8576  0.0298
                                           -0.0042  0.0000  0.0001 -0.2470  0.0108
                                           -0.0025 -0.0001 -0.0275 -0.0007 -0.0015
                                           -0.0002 -0.0051  0.0016 -0.0010 -0.0003
                                           -0.0202  0.0012 -0.0018  0.0003  0.0314
                                           -0.0000  0.0021  0.0000  0.0216  0.0003
                                            0.0007  0.0027  0.0015  0.0035  0.0036
                                           -0.0016  0.0050  0.0021
     6. (1.97449) BD ( 1) C   2 - C   4  
                ( 54.78%)   0.7401* C   2 s( 27.64%)p 2.61( 72.15%)d 0.01(  0.20%)
                                                  f 0.00(  0.01%)
                                            0.0001  0.5257 -0.0026  0.0055 -0.0001
                                           -0.6250 -0.0075 -0.0057  0.5460 -0.0002
                                            0.0027 -0.1805 -0.0095  0.0014 -0.0295
                                           -0.0066  0.0224  0.0004 -0.0143 -0.0016
                                            0.0041 -0.0008 -0.0192 -0.0017  0.0055
                                            0.0048 -0.0022 -0.0012  0.0007  0.0043
                                            0.0050
                ( 45.22%)   0.6725* C   4 s( 30.20%)p 2.31( 69.74%)d 0.00(  0.06%)
                                                  f 0.00(  0.01%)
                                            0.0002  0.5491 -0.0199 -0.0049  0.0001
                                            0.6334 -0.0083 -0.0037 -0.5241  0.0019
                                            0.0060  0.1461  0.0063 -0.0053 -0.0172
                                            0.0004  0.0088  0.0032 -0.0046 -0.0007
                                            0.0028  0.0008 -0.0123 -0.0010 -0.0022
                                           -0.0012  0.0008 -0.0004 -0.0045 -0.0024
                                           -0.0044
     7. (1.97819) BD ( 1) C   2 - H  14  
                ( 63.93%)   0.7996* C   2 s( 27.56%)p 2.62( 72.33%)d 0.00(  0.11%)
                                                  f 0.00(  0.00%)
                                           -0.0002  0.5250 -0.0006  0.0038 -0.0002
                                            0.1715  0.0055  0.0009 -0.0340 -0.0037
                                           -0.0060  0.8318  0.0074  0.0254 -0.0016
                                            0.0006  0.0172  0.0025 -0.0028 -0.0014
                                           -0.0009 -0.0002  0.0252  0.0112  0.0041
                                            0.0015 -0.0003 -0.0005 -0.0014  0.0039
                                            0.0016
                ( 36.07%)   0.6006* H  14 s( 99.94%)p 0.00(  0.06%)
                                            0.9997  0.0036 -0.0000 -0.0031  0.0037
                                           -0.0238
     8. (1.99703) BD ( 1) C   4 - O   5  
                ( 34.95%)   0.5912* C   4 s( 32.87%)p 2.04( 67.05%)d 0.00(  0.06%)
                                                  f 0.00(  0.01%)
                                            0.0000 -0.5712 -0.0499  0.0018 -0.0007
                                            0.0501  0.0117  0.0022 -0.3273 -0.0257
                                           -0.0015  0.7474  0.0397 -0.0008 -0.0039
                                           -0.0064 -0.0029 -0.0014  0.0115 -0.0104
                                            0.0048  0.0003 -0.0155  0.0086  0.0043
                                            0.0018 -0.0060 -0.0034  0.0007  0.0013
                                            0.0011
                ( 65.05%)   0.8065* O   5 s( 42.11%)p 1.36( 57.24%)d 0.02(  0.63%)
                                                  f 0.00(  0.01%)
                                           -0.0000 -0.6489 -0.0066  0.0002 -0.0004
                                           -0.0146  0.0004  0.0014  0.3533 -0.0092
                                           -0.0044 -0.6684  0.0194  0.0082 -0.0006
                                            0.0004 -0.0054  0.0001  0.0544  0.0009
                                            0.0150  0.0000 -0.0558 -0.0008 -0.0056
                                           -0.0016  0.0096  0.0045 -0.0002 -0.0005
                                           -0.0012
     9. (1.98160) BD ( 2) C   4 - O   5  
                ( 32.45%)   0.5696* C   4 s(  0.03%)p99.99( 99.83%)d 4.18(  0.13%)
                                                  f 0.23(  0.01%)
                                           -0.0000  0.0175  0.0022  0.0000  0.0001
                                            0.5507 -0.0089  0.0069  0.7717 -0.0141
                                            0.0113  0.3146 -0.0071  0.0062  0.0082
                                            0.0033 -0.0173 -0.0051 -0.0198 -0.0050
                                           -0.0092 -0.0012 -0.0189 -0.0062  0.0005
                                           -0.0020  0.0019 -0.0012 -0.0037  0.0069
                                           -0.0008
                ( 67.55%)   0.8219* O   5 s(  0.05%)p99.99( 99.52%)d 8.46(  0.41%)
                                                  f 0.38(  0.02%)
                                            0.0000  0.0221  0.0000  0.0002 -0.0000
                                            0.5446 -0.0055  0.0011  0.7523 -0.0071
                                            0.0017  0.3642 -0.0042  0.0011 -0.0120
                                           -0.0002  0.0334 -0.0002  0.0321  0.0001
                                            0.0244 -0.0003  0.0353  0.0001  0.0087
                                            0.0064  0.0028  0.0063 -0.0033 -0.0022
                                           -0.0020
    10. (1.98980) BD ( 1) C   4 - C  12  
                ( 49.72%)   0.7051* C   4 s( 37.06%)p 1.70( 62.89%)d 0.00(  0.05%)
                                                  f 0.00(  0.01%)
                                           -0.0001  0.6085 -0.0170  0.0051 -0.0003
                                           -0.5400 -0.0009 -0.0000  0.1421  0.0053
                                            0.0041  0.5630 -0.0062 -0.0063  0.0042
                                            0.0096 -0.0142  0.0056  0.0069  0.0015
                                            0.0041 -0.0038  0.0055 -0.0014  0.0001
                                           -0.0058  0.0015  0.0033 -0.0011 -0.0016
                                            0.0004
                ( 50.28%)   0.7091* C  12 s( 26.74%)p 2.73( 72.95%)d 0.01(  0.29%)
                                                  f 0.00(  0.01%)
                                            0.0001  0.5171 -0.0002 -0.0070 -0.0001
                                            0.5440  0.0033 -0.0147 -0.1511  0.0012
                                            0.0046 -0.6406 -0.0053  0.0061 -0.0076
                                           -0.0029 -0.0453  0.0005  0.0161 -0.0033
                                            0.0192 -0.0002  0.0122  0.0026  0.0022
                                            0.0070 -0.0023 -0.0067  0.0060  0.0022
                                            0.0010
    11. (1.97708) BD ( 1) C   6 - C   7  
                ( 52.28%)   0.7230* C   6 s( 32.39%)p 2.09( 67.55%)d 0.00(  0.05%)
                                                  f 0.00(  0.00%)
                                           -0.0001  0.5691 -0.0039 -0.0014 -0.0001
                                            0.5642  0.0107 -0.0012  0.0714 -0.0005
                                            0.0002 -0.5933  0.0012  0.0016  0.0030
                                            0.0020 -0.0139 -0.0141 -0.0018 -0.0017
                                            0.0027  0.0045  0.0059  0.0051  0.0002
                                            0.0024  0.0012 -0.0039 -0.0008  0.0024
                                            0.0002
                ( 47.72%)   0.6908* C   7 s( 33.41%)p 1.99( 66.39%)d 0.01(  0.18%)
                                                  f 0.00(  0.02%)
                                            0.0000  0.5780 -0.0057 -0.0053 -0.0004
                                           -0.5605  0.0194  0.0091 -0.0804 -0.0008
                                            0.0010  0.5854 -0.0020 -0.0090  0.0044
                                            0.0011 -0.0338 -0.0064 -0.0066 -0.0006
                                            0.0160  0.0017  0.0165  0.0019 -0.0000
                                           -0.0076 -0.0029  0.0101  0.0020 -0.0041
                                           -0.0017
    12. (1.97884) BD ( 1) C   6 - C  11  
                ( 52.08%)   0.7217* C   6 s( 33.33%)p 2.00( 66.63%)d 0.00(  0.04%)
                                                  f 0.00(  0.00%)
                                           -0.0000  0.5773 -0.0044 -0.0014 -0.0002
                                            0.2401  0.0083 -0.0001 -0.1649 -0.0008
                                            0.0003  0.7624  0.0023  0.0019 -0.0003
                                           -0.0012  0.0059  0.0068 -0.0029 -0.0048
                                           -0.0032 -0.0011  0.0098  0.0132  0.0031
                                            0.0032 -0.0023  0.0013 -0.0015  0.0003
                                           -0.0006
                ( 47.92%)   0.6922* C  11 s( 33.30%)p 2.00( 66.49%)d 0.01(  0.19%)
                                                  f 0.00(  0.02%)
                                            0.0000  0.5770 -0.0066 -0.0053 -0.0004
                                           -0.2727 -0.0150  0.0040  0.1613  0.0021
                                           -0.0025 -0.7510 -0.0078  0.0120 -0.0039
                                           -0.0006  0.0175  0.0039 -0.0142 -0.0019
                                            0.0027 -0.0007  0.0364  0.0050 -0.0082
                                           -0.0079  0.0065 -0.0047  0.0033  0.0001
                                            0.0013
    13. (1.98548) BD ( 1) C   7 - C   8  
                ( 50.12%)   0.7079* C   7 s( 36.45%)p 1.74( 63.40%)d 0.00(  0.14%)
                                                  f 0.00(  0.01%)
                                            0.0000  0.6036  0.0139  0.0058 -0.0002
                                            0.7796 -0.0234 -0.0013 -0.0687 -0.0028
                                            0.0003  0.1432  0.0204 -0.0014 -0.0072
                                           -0.0006  0.0252 -0.0007 -0.0036  0.0015
                                            0.0234  0.0064 -0.0074 -0.0077 -0.0009
                                           -0.0040  0.0002  0.0011 -0.0011  0.0091
                                           -0.0018
                ( 49.88%)   0.7063* C   8 s( 35.50%)p 1.81( 64.35%)d 0.00(  0.14%)
                                                  f 0.00(  0.01%)
                                            0.0000  0.5957  0.0068  0.0030 -0.0003
                                           -0.7757 -0.0160  0.0065  0.0787  0.0063
                                           -0.0006 -0.1856 -0.0290  0.0012 -0.0042
                                           -0.0016  0.0032  0.0051 -0.0009 -0.0003
                                            0.0318  0.0062 -0.0163 -0.0038  0.0032
                                            0.0020 -0.0001 -0.0048  0.0017 -0.0073
                                            0.0025
    14. (1.62971) BD ( 2) C   7 - C   8  
                ( 44.68%)   0.6684* C   7 s(  0.00%)p 1.00( 99.92%)d 0.00(  0.05%)
                                                  f 0.00(  0.03%)
                                            0.0000 -0.0011  0.0002 -0.0004  0.0000
                                            0.0530  0.0010  0.0011  0.9803  0.0109
                                            0.0207  0.1864  0.0020  0.0039  0.0084
                                            0.0116  0.0027  0.0022  0.0167  0.0009
                                            0.0041  0.0014  0.0055  0.0005  0.0039
                                           -0.0000  0.0074  0.0054 -0.0024  0.0019
                                            0.0134
                ( 55.32%)   0.7438* C   8 s(  0.00%)p 1.00( 99.93%)d 0.00(  0.05%)
                                                  f 0.00(  0.03%)
                                            0.0000 -0.0003  0.0003 -0.0003  0.0000
                                            0.0546 -0.0008  0.0010  0.9802 -0.0127
                                            0.0188  0.1870 -0.0027  0.0036 -0.0153
                                           -0.0073 -0.0024 -0.0012  0.0119  0.0015
                                            0.0006 -0.0005  0.0042  0.0004  0.0041
                                            0.0010  0.0077  0.0060  0.0014  0.0026
                                            0.0125
    15. (1.97736) BD ( 1) C   7 - H  15  
                ( 62.24%)   0.7889* C   7 s( 30.08%)p 2.32( 69.84%)d 0.00(  0.07%)
                                                  f 0.00(  0.02%)
                                            0.0003 -0.5484  0.0061  0.0013 -0.0006
                                            0.2680  0.0124 -0.0009 -0.1624 -0.0041
                                            0.0006  0.7744  0.0171 -0.0024  0.0028
                                            0.0005 -0.0177 -0.0037  0.0044  0.0030
                                            0.0066  0.0015 -0.0125 -0.0092  0.0073
                                            0.0019 -0.0064  0.0078 -0.0024  0.0033
                                           -0.0026
                ( 37.76%)   0.6145* H  15 s( 99.95%)p 0.00(  0.05%)
                                           -0.9997 -0.0012 -0.0004 -0.0074  0.0046
                                           -0.0213
    16. (1.98529) BD ( 1) C   8 - C   9  
                ( 50.29%)   0.7091* C   8 s( 34.58%)p 1.89( 65.27%)d 0.00(  0.14%)
                                                  f 0.00(  0.01%)
                                            0.0000  0.5880  0.0067  0.0011  0.0002
                                            0.2546  0.0310 -0.0029 -0.1570 -0.0035
                                            0.0014  0.7497  0.0093 -0.0062 -0.0010
                                           -0.0015  0.0045  0.0076 -0.0120 -0.0021
                                           -0.0005 -0.0000  0.0343  0.0049  0.0047
                                            0.0060 -0.0044  0.0045 -0.0028  0.0011
                                           -0.0014
                ( 49.71%)   0.7051* C   9 s( 35.49%)p 1.81( 64.37%)d 0.00(  0.13%)
                                                  f 0.00(  0.01%)
                                            0.0000  0.5957  0.0060  0.0016 -0.0000
                                           -0.2200  0.0186 -0.0014  0.1578  0.0037
                                           -0.0010 -0.7546 -0.0247  0.0057 -0.0054
                                           -0.0000  0.0244  0.0011 -0.0103 -0.0022
                                            0.0050 -0.0018  0.0226  0.0072 -0.0082
                                           -0.0030  0.0051 -0.0018  0.0014 -0.0005
                                            0.0007
    17. (1.97735) BD ( 1) C   8 - H  16  
                ( 62.57%)   0.7910* C   8 s( 29.87%)p 2.34( 70.03%)d 0.00(  0.08%)
                                                  f 0.00(  0.02%)
                                           -0.0003  0.5464 -0.0109 -0.0038  0.0001
                                            0.5720 -0.0150 -0.0056  0.0836 -0.0021
                                           -0.0005 -0.6047  0.0153  0.0043  0.0050
                                            0.0008 -0.0258 -0.0058  0.0003 -0.0010
                                           -0.0014  0.0034  0.0046  0.0018 -0.0033
                                            0.0034  0.0041 -0.0078 -0.0020  0.0076
                                            0.0007
                ( 37.43%)   0.6118* H  16 s( 99.95%)p 0.00(  0.05%)
                                            0.9998 -0.0003  0.0011 -0.0146 -0.0023
                                            0.0164
    18. (1.98530) BD ( 1) C   9 - C  10  
                ( 49.72%)   0.7051* C   9 s( 35.30%)p 1.83( 64.55%)d 0.00(  0.13%)
                                                  f 0.00(  0.01%)
                                            0.0000  0.5941  0.0057  0.0014 -0.0000
                                           -0.5239  0.0067  0.0015 -0.0857 -0.0061
                                            0.0011  0.6023  0.0298 -0.0060  0.0036
                                            0.0012 -0.0296 -0.0063 -0.0029 -0.0011
                                            0.0188  0.0001  0.0027  0.0043  0.0022
                                           -0.0070 -0.0026  0.0055  0.0022 -0.0028
                                           -0.0009
                ( 50.28%)   0.7091* C  10 s( 34.48%)p 1.90( 65.36%)d 0.00(  0.14%)
                                                  f 0.00(  0.01%)
                                            0.0000  0.5872  0.0068  0.0011  0.0003
                                            0.5509  0.0316 -0.0055  0.0836 -0.0025
                                           -0.0006 -0.5849  0.0037  0.0046  0.0043
                                            0.0011 -0.0268 -0.0080 -0.0077  0.0001
                                            0.0068  0.0039  0.0227 -0.0011  0.0009
                                            0.0044  0.0018 -0.0075 -0.0017  0.0051
                                            0.0010
    19. (1.97936) BD ( 1) C   9 - H  17  
                ( 62.18%)   0.7886* C   9 s( 29.16%)p 2.43( 70.74%)d 0.00(  0.08%)
                                                  f 0.00(  0.02%)
                                           -0.0003  0.5399 -0.0093 -0.0030  0.0001
                                            0.8196 -0.0227 -0.0039 -0.0788  0.0022
                                            0.0003  0.1701 -0.0048 -0.0008 -0.0038
                                           -0.0011  0.0112  0.0022  0.0035 -0.0002
                                            0.0147  0.0055 -0.0206 -0.0030  0.0005
                                            0.0013 -0.0012  0.0021 -0.0036  0.0116
                                           -0.0026
                ( 37.82%)   0.6150* H  17 s( 99.95%)p 0.00(  0.05%)
                                            0.9997  0.0001  0.0007 -0.0219  0.0021
                                           -0.0044
    20. (1.98505) BD ( 1) C  10 - C  11  
                ( 49.73%)   0.7052* C  10 s( 35.71%)p 1.80( 64.14%)d 0.00(  0.14%)
                                                  f 0.00(  0.01%)
                                            0.0000  0.5976  0.0075  0.0030 -0.0003
                                           -0.7860 -0.0274  0.0067  0.0697 -0.0024
                                           -0.0006 -0.1327  0.0202  0.0013 -0.0068
                                           -0.0010  0.0193  0.0009 -0.0031  0.0003
                                            0.0273  0.0074 -0.0102 -0.0055  0.0008
                                            0.0045 -0.0002 -0.0015  0.0009 -0.0084
                                            0.0018
                ( 50.27%)   0.7090* C  11 s( 36.55%)p 1.73( 63.29%)d 0.00(  0.14%)
                                                  f 0.00(  0.01%)
                                            0.0000  0.6044  0.0148  0.0050 -0.0002
                                            0.7739  0.0129 -0.0024 -0.0756 -0.0058
                                           -0.0001  0.1655  0.0263  0.0013 -0.0027
                                           -0.0018 -0.0046  0.0072  0.0002  0.0005
                                            0.0313  0.0036 -0.0181 -0.0045 -0.0021
                                           -0.0015 -0.0007  0.0048 -0.0019  0.0076
                                           -0.0025
    21. (1.65451) BD ( 2) C  10 - C  11  
                ( 54.25%)   0.7366* C  10 s(  0.00%)p 1.00( 99.93%)d 0.00(  0.04%)
                                                  f 0.00(  0.03%)
                                            0.0000  0.0002 -0.0002  0.0001  0.0000
                                            0.0547 -0.0006  0.0010  0.9793 -0.0128
                                            0.0187  0.1917 -0.0025  0.0035 -0.0088
                                           -0.0065 -0.0026 -0.0015 -0.0156 -0.0038
                                           -0.0042 -0.0015 -0.0056 -0.0014  0.0037
                                            0.0000  0.0067  0.0055 -0.0017  0.0020
                                            0.0134
                ( 45.75%)   0.6764* C  11 s(  0.00%)p 1.00( 99.92%)d 0.00(  0.05%)
                                                  f 0.00(  0.03%)
                                            0.0000  0.0020  0.0000 -0.0003  0.0000
                                            0.0529 -0.0007  0.0008  0.9791 -0.0104
                                            0.0210  0.1926 -0.0022  0.0040  0.0159
                                            0.0103  0.0023  0.0022 -0.0111  0.0026
                                           -0.0005  0.0016 -0.0042  0.0011  0.0050
                                            0.0010  0.0089  0.0063  0.0009  0.0024
                                            0.0121
    22. (1.97761) BD ( 1) C  10 - H  18  
                ( 62.52%)   0.7907* C  10 s( 29.75%)p 2.36( 70.15%)d 0.00(  0.08%)
                                                  f 0.00(  0.02%)
                                           -0.0003  0.5453 -0.0115 -0.0038  0.0001
                                            0.2682 -0.0072 -0.0029 -0.1668  0.0043
                                            0.0011  0.7754 -0.0200 -0.0055 -0.0014
                                           -0.0009  0.0133  0.0041 -0.0053 -0.0023
                                           -0.0111  0.0009  0.0192  0.0053  0.0063
                                            0.0027 -0.0062  0.0076 -0.0026  0.0028
                                           -0.0025
                ( 37.48%)   0.6122* H  18 s( 99.95%)p 0.00(  0.05%)
                                            0.9998 -0.0003  0.0011 -0.0063  0.0044
                                           -0.0205
    23. (1.97729) BD ( 1) C  11 - H  19  
                ( 61.97%)   0.7872* C  11 s( 30.09%)p 2.32( 69.83%)d 0.00(  0.07%)
                                                  f 0.00(  0.02%)
                                            0.0003 -0.5485  0.0057  0.0006 -0.0005
                                            0.5670 -0.0167 -0.0014  0.0899 -0.0007
                                           -0.0003 -0.6069  0.0091  0.0022 -0.0043
                                           -0.0016  0.0234  0.0086 -0.0015  0.0017
                                           -0.0038 -0.0012  0.0031 -0.0052 -0.0039
                                            0.0039  0.0048 -0.0084 -0.0022  0.0075
                                            0.0009
                ( 38.03%)   0.6166* H  19 s( 99.94%)p 0.00(  0.06%)
                                           -0.9997 -0.0013 -0.0004 -0.0154 -0.0028
                                            0.0175
    24. (1.97066) BD ( 1) C  12 - H  20  
                ( 62.17%)   0.7885* C  12 s( 24.35%)p 3.10( 75.48%)d 0.01(  0.16%)
                                                  f 0.00(  0.01%)
                                            0.0002 -0.4935 -0.0022  0.0005 -0.0002
                                            0.2474  0.0074  0.0055  0.7492 -0.0046
                                            0.0004 -0.3635 -0.0034 -0.0014 -0.0062
                                           -0.0038  0.0014  0.0024  0.0195  0.0023
                                            0.0317 -0.0008  0.0105  0.0013  0.0020
                                           -0.0012  0.0000  0.0032 -0.0063 -0.0009
                                           -0.0036
                ( 37.83%)   0.6151* H  20 s( 99.97%)p 0.00(  0.03%)
                                           -0.9999 -0.0007  0.0001 -0.0053 -0.0137
                                            0.0085
    25. (1.95733) BD ( 1) C  12 - H  21  
                ( 62.41%)   0.7900* C  12 s( 23.30%)p 3.28( 76.53%)d 0.01(  0.16%)
                                                  f 0.00(  0.01%)
                                           -0.0002  0.4827 -0.0011  0.0015  0.0001
                                            0.3971 -0.0091 -0.0001  0.4831  0.0024
                                            0.0037  0.6116  0.0030  0.0028  0.0238
                                           -0.0004  0.0257  0.0005  0.0184  0.0037
                                            0.0073 -0.0033  0.0011  0.0021  0.0001
                                            0.0019  0.0032 -0.0032  0.0050  0.0012
                                            0.0039
                ( 37.59%)   0.6131* H  21 s( 99.97%)p 0.00(  0.03%)
                                            0.9999  0.0006 -0.0001 -0.0064 -0.0090
                                           -0.0123
    26. (1.98513) BD ( 1) C  12 - H  22  
                ( 62.48%)   0.7904* C  12 s( 25.55%)p 2.91( 74.33%)d 0.00(  0.12%)
                                                  f 0.00(  0.01%)
                                            0.0001 -0.5054 -0.0006 -0.0052  0.0002
                                            0.6946  0.0005  0.0055 -0.4248  0.0030
                                           -0.0024  0.2833 -0.0076 -0.0001  0.0221
                                            0.0028 -0.0200 -0.0018  0.0118  0.0020
                                           -0.0081 -0.0020  0.0077  0.0002 -0.0011
                                           -0.0027 -0.0002  0.0033 -0.0066 -0.0009
                                           -0.0058
                ( 37.52%)   0.6125* H  22 s( 99.97%)p 0.00(  0.03%)
                                           -0.9998 -0.0010 -0.0001 -0.0156  0.0095
                                           -0.0038
    27. (1.99916) CR ( 1) C   1           s(100.00%)p 0.00(  0.00%)
                                            1.0000  0.0001 -0.0000 -0.0000  0.0000
                                           -0.0000 -0.0000  0.0000  0.0002 -0.0000
                                            0.0000 -0.0002 -0.0000 -0.0000  0.0000
                                            0.0000  0.0000  0.0000  0.0000 -0.0000
                                           -0.0000 -0.0000  0.0000  0.0000 -0.0000
                                           -0.0000  0.0000 -0.0000  0.0000  0.0000
                                            0.0000
    28. (1.99907) CR ( 1) C   2           s(100.00%)p 0.00(  0.00%)
                                            1.0000  0.0001 -0.0000 -0.0000  0.0000
                                           -0.0001  0.0000  0.0000 -0.0003  0.0000
                                            0.0000  0.0001 -0.0000  0.0000  0.0000
                                           -0.0000  0.0000  0.0000  0.0000 -0.0000
                                           -0.0000 -0.0000 -0.0000  0.0000  0.0000
                                            0.0000  0.0000  0.0000 -0.0000  0.0000
                                            0.0000
    29. (2.00000) CR ( 1)Br   3           s(100.00%)
                                            1.0000 -0.0000  0.0000  0.0000  0.0000
                                            0.0000  0.0000 -0.0000  0.0000 -0.0000
                                            0.0000  0.0000 -0.0000  0.0000 -0.0000
                                            0.0000 -0.0000 -0.0000  0.0000 -0.0000
                                            0.0000 -0.0000  0.0000  0.0000  0.0000
                                            0.0000  0.0000 -0.0000  0.0000  0.0000
                                            0.0000 -0.0000  0.0000 -0.0000 -0.0000
                                            0.0000 -0.0000 -0.0000 -0.0000 -0.0000
                                           -0.0000 -0.0000 -0.0000 -0.0000 -0.0000
                                            0.0000 -0.0000 -0.0000
    30. (2.00000) CR ( 2)Br   3           s(100.00%)
                                           -0.0000  1.0000  0.0000  0.0000  0.0000
                                            0.0000  0.0000 -0.0000  0.0000 -0.0000
                                            0.0000  0.0000 -0.0000  0.0000 -0.0000
                                            0.0000 -0.0000 -0.0000 -0.0000 -0.0000
                                            0.0000  0.0000  0.0000  0.0000  0.0000
                                            0.0000  0.0000 -0.0000  0.0000  0.0000
                                            0.0000 -0.0000  0.0000 -0.0000 -0.0000
                                           -0.0000 -0.0000 -0.0000 -0.0000  0.0000
                                           -0.0000 -0.0000 -0.0000 -0.0000 -0.0000
                                            0.0000 -0.0000 -0.0000
    31. (1.99986) CR ( 3)Br   3           s(100.00%)p 0.00(  0.00%)
                                            0.0000  0.0000  1.0000  0.0000 -0.0000
                                           -0.0000 -0.0000  0.0000 -0.0001  0.0000
                                           -0.0000 -0.0000  0.0000 -0.0003  0.0000
                                           -0.0000  0.0000  0.0000  0.0000  0.0000
                                           -0.0000 -0.0000 -0.0000 -0.0000 -0.0000
                                           -0.0000 -0.0000  0.0000 -0.0000 -0.0000
                                           -0.0000  0.0000 -0.0000  0.0000  0.0000
                                            0.0000  0.0000  0.0000  0.0000 -0.0000
                                            0.0000  0.0000  0.0000  0.0000  0.0000
                                           -0.0000  0.0000  0.0000
    32. (2.00000) CR ( 4)Br   3           s(  0.00%)p 1.00(100.00%)
                                            0.0000  0.0000 -0.0000  0.0000 -0.0000
                                            0.0000  1.0000  0.0000 -0.0000 -0.0000
                                            0.0000 -0.0000  0.0000 -0.0000  0.0000
                                           -0.0000  0.0000  0.0000  0.0000  0.0000
                                           -0.0000  0.0000 -0.0000  0.0000  0.0000
                                           -0.0000 -0.0000  0.0000 -0.0000 -0.0000
                                           -0.0000  0.0000 -0.0000  0.0000  0.0000
                                            0.0000  0.0000  0.0000  0.0000 -0.0000
                                           -0.0000 -0.0000  0.0000  0.0000 -0.0000
                                           -0.0000  0.0000 -0.0000
    33. (1.99997) CR ( 5)Br   3           s(  0.00%)p 1.00(100.00%)
                                           -0.0000 -0.0000  0.0000  0.0001  0.0000
                                            0.0000  0.0000  1.0000  0.0002 -0.0000
                                            0.0000  0.0000 -0.0000  0.0003 -0.0000
                                            0.0000 -0.0000 -0.0000 -0.0001 -0.0000
                                            0.0000  0.0000  0.0000  0.0000  0.0000
                                            0.0000  0.0000 -0.0000  0.0000  0.0000
                                            0.0000 -0.0000  0.0000 -0.0000 -0.0000
                                           -0.0000 -0.0000 -0.0000 -0.0000  0.0000
                                           -0.0000 -0.0000 -0.0000 -0.0000 -0.0000
                                            0.0000 -0.0000 -0.0000
    34. (2.00000) CR ( 6)Br   3           s(  0.00%)p 1.00(100.00%)
                                            0.0000  0.0000 -0.0000  0.0000 -0.0000
                                           -0.0000 -0.0000  0.0000 -0.0000  0.0000
                                           -0.0000  1.0000  0.0000 -0.0000  0.0000
                                           -0.0000  0.0000  0.0000  0.0000  0.0000
                                           -0.0000 -0.0000 -0.0000 -0.0000 -0.0000
                                           -0.0000 -0.0000  0.0000 -0.0000 -0.0000
                                           -0.0000  0.0000 -0.0000  0.0000  0.0000
                                            0.0000  0.0000  0.0000  0.0000 -0.0000
                                            0.0000 -0.0000  0.0000  0.0000  0.0000
                                            0.0000  0.0000  0.0000
    35. (1.99991) CR ( 7)Br   3           s(  0.00%)p 1.00(100.00%)
                                           -0.0000 -0.0000  0.0000  0.0001  0.0000
                                            0.0000  0.0000 -0.0000  0.0004 -0.0000
                                            0.0000  0.0000  1.0000  0.0006 -0.0000
                                            0.0000 -0.0000 -0.0000 -0.0001 -0.0000
                                            0.0000  0.0000  0.0000  0.0000  0.0000
                                            0.0000  0.0000 -0.0000  0.0000  0.0000
                                            0.0000 -0.0000  0.0000 -0.0000 -0.0000
                                           -0.0000 -0.0000 -0.0000 -0.0000  0.0000
                                           -0.0000 -0.0000 -0.0000 -0.0000 -0.0000
                                            0.0000 -0.0000 -0.0000
    36. (2.00000) CR ( 8)Br   3           s(  0.00%)p 1.00(100.00%)
                                           -0.0000 -0.0000  0.0000  0.0000  0.0000
                                           -0.0000  0.0000 -0.0000 -0.0000 -0.0000
                                           -0.0000  0.0000 -0.0000  0.0000 -0.0000
                                            0.0000  1.0000 -0.0000 -0.0000 -0.0000
                                            0.0000  0.0000  0.0000  0.0000  0.0000
                                            0.0000 -0.0000  0.0000  0.0000  0.0000
                                           -0.0000  0.0000  0.0000 -0.0000 -0.0000
                                            0.0000 -0.0000  0.0000 -0.0000  0.0000
                                            0.0000  0.0000 -0.0000 -0.0000  0.0000
                                           -0.0000 -0.0000 -0.0000
    37. (1.99999) CR ( 9)Br   3           s(  0.00%)p 1.00(100.00%)
                                           -0.0000 -0.0000  0.0000 -0.0000  0.0000
                                            0.0000  0.0000 -0.0000 -0.0000 -0.0000
                                            0.0000  0.0000 -0.0000  0.0001 -0.0000
                                            0.0000 -0.0000  1.0000 -0.0000 -0.0000
                                            0.0000  0.0000  0.0000  0.0000  0.0000
                                            0.0000  0.0000 -0.0000  0.0000  0.0000
                                            0.0000 -0.0000  0.0000 -0.0000 -0.0000
                                            0.0000 -0.0000  0.0000 -0.0000  0.0000
                                           -0.0000  0.0000 -0.0000 -0.0000 -0.0000
                                           -0.0000 -0.0000 -0.0000
    38. (1.99989) CR (10)Br   3           s(  0.00%)p 0.00(  0.00%)d 1.00(100.00%)
                                           -0.0000  0.0000 -0.0000  0.0000 -0.0000
                                           -0.0000  0.0000  0.0000  0.0001  0.0000
                                           -0.0000 -0.0000  0.0000 -0.0001  0.0000
                                           -0.0000  0.0000  0.0000  0.0000  0.0000
                                           -0.0000  1.0000 -0.0000 -0.0000 -0.0000
                                           -0.0000  0.0000 -0.0000 -0.0000 -0.0000
                                           -0.0000  0.0000 -0.0000 -0.0000  0.0000
                                           -0.0000 -0.0000 -0.0000  0.0000 -0.0000
                                            0.0000  0.0000 -0.0000  0.0000  0.0000
                                            0.0000  0.0000  0.0000
    39. (1.99998) CR (11)Br   3           s(  0.00%)p 0.00(  0.00%)d 1.00(100.00%)
                                            0.0000  0.0000 -0.0000 -0.0000 -0.0000
                                           -0.0000 -0.0000  0.0000 -0.0001  0.0000
                                           -0.0000 -0.0000  0.0000 -0.0002  0.0000
                                           -0.0000  0.0000  0.0000  0.0001  0.0000
                                           -0.0000 -0.0000 -0.0000 -0.0000 -0.0000
                                            1.0000 -0.0000  0.0000 -0.0000 -0.0000
                                           -0.0000  0.0000 -0.0000  0.0000  0.0000
                                            0.0000  0.0000  0.0000  0.0000 -0.0000
                                            0.0000 -0.0000  0.0000  0.0000  0.0000
                                            0.0000  0.0000  0.0000
    40. (1.99991) CR (12)Br   3           s(  0.00%)p 0.00(  0.00%)d 1.00(100.00%)
                                            0.0000  0.0000 -0.0000 -0.0001 -0.0000
                                           -0.0000 -0.0000  0.0000 -0.0003  0.0000
                                            0.0000 -0.0000  0.0000 -0.0003  0.0000
                                           -0.0000  0.0000  0.0000  0.0002  0.0000
                                           -0.0000 -0.0000 -0.0000 -0.0000 -0.0000
                                           -0.0000 -0.0000  0.0000 -0.0000  1.0000
                                           -0.0000  0.0000 -0.0000  0.0000  0.0000
                                            0.0000  0.0000  0.0000  0.0000 -0.0000
                                            0.0000 -0.0000  0.0000  0.0000  0.0000
                                            0.0000  0.0000  0.0000
    41. (1.99986) CR (13)Br   3           s(  0.00%)p 0.00(  0.00%)d 1.00(100.00%)
                                           -0.0000 -0.0000  0.0000  0.0000  0.0000
                                            0.0000  0.0000 -0.0000  0.0004 -0.0000
                                           -0.0000  0.0000 -0.0000  0.0002 -0.0000
                                            0.0000 -0.0000 -0.0000 -0.0001 -0.0000
                                            0.0000 -0.0000  0.0000 -0.0000  0.0000
                                            0.0000  0.0000 -0.0000  0.0000  0.0000
                                            0.0000 -0.0000  0.0000  1.0000 -0.0000
                                           -0.0000 -0.0000 -0.0000 -0.0000  0.0000
                                           -0.0000 -0.0000 -0.0000 -0.0000 -0.0000
                                            0.0000 -0.0000  0.0000
    42. (1.99995) CR (14)Br   3           s(  0.00%)p 0.00(  0.00%)d 1.00(100.00%)
                                           -0.0000 -0.0000  0.0000 -0.0000  0.0000
                                           -0.0000  0.0000 -0.0000  0.0000  0.0000
                                           -0.0000  0.0000 -0.0000 -0.0000 -0.0000
                                            0.0000  0.0000  0.0000  0.0000 -0.0000
                                            0.0000 -0.0000  0.0000 -0.0000 -0.0000
                                            0.0000  0.0000 -0.0000 -0.0000  0.0000
                                            0.0000 -0.0000  0.0000 -0.0000  0.0000
                                           -0.0000 -0.0000  1.0000 -0.0000 -0.0000
                                            0.0000 -0.0000 -0.0000 -0.0000 -0.0000
                                            0.0000 -0.0000  0.0000
    43. (1.99943) CR ( 1) C   4           s(100.00%)p 0.00(  0.00%)
                                            1.0000 -0.0000  0.0000  0.0000 -0.0000
                                           -0.0001  0.0000  0.0000  0.0001  0.0000
                                           -0.0000  0.0000 -0.0000  0.0000  0.0000
                                            0.0000 -0.0000 -0.0000  0.0000  0.0000
                                           -0.0000 -0.0000  0.0000 -0.0000  0.0000
                                           -0.0000  0.0000  0.0000  0.0000  0.0000
                                            0.0000
    44. (1.99976) CR ( 1) O   5           s(100.00%)p 0.00(  0.00%)
                                            1.0000  0.0003 -0.0000  0.0000 -0.0000
                                            0.0000  0.0000 -0.0000  0.0001 -0.0000
                                            0.0000 -0.0003  0.0000 -0.0000  0.0000
                                            0.0000 -0.0000  0.0000  0.0000  0.0000
                                            0.0000 -0.0000 -0.0000 -0.0000 -0.0000
                                           -0.0000  0.0000  0.0000 -0.0000 -0.0000
                                           -0.0000
    45. (1.99908) CR ( 1) C   6           s(100.00%)
                                            1.0000  0.0001 -0.0000 -0.0000 -0.0000
                                            0.0001  0.0000 -0.0000  0.0000 -0.0000
                                            0.0000 -0.0001  0.0000  0.0000  0.0000
                                            0.0000 -0.0000 -0.0000 -0.0000 -0.0000
                                            0.0000  0.0000  0.0000  0.0000  0.0000
                                            0.0000  0.0000 -0.0000 -0.0000  0.0000
                                            0.0000
    46. (1.99918) CR ( 1) C   7           s(100.00%)p 0.00(  0.00%)
                                            1.0000  0.0001 -0.0000 -0.0000  0.0000
                                           -0.0001 -0.0000 -0.0000  0.0000  0.0000
                                           -0.0000 -0.0003 -0.0000  0.0000 -0.0000
                                           -0.0000  0.0000  0.0000 -0.0000 -0.0000
                                           -0.0000 -0.0000  0.0000  0.0000 -0.0000
                                           -0.0000  0.0000 -0.0000  0.0000 -0.0000
                                            0.0000
    47. (1.99921) CR ( 1) C   8           s(100.00%)p 0.00(  0.00%)
                                            1.0000  0.0002 -0.0000 -0.0000  0.0000
                                            0.0002 -0.0000 -0.0000  0.0000 -0.0000
                                           -0.0000 -0.0002  0.0000  0.0000  0.0000
                                            0.0000 -0.0000 -0.0000  0.0000 -0.0000
                                           -0.0000  0.0000  0.0000  0.0000 -0.0000
                                            0.0000  0.0000 -0.0000 -0.0000  0.0000
                                            0.0000
    48. (1.99926) CR ( 1) C   9           s(100.00%)p 0.00(  0.00%)
                                            1.0000  0.0001 -0.0000 -0.0000  0.0000
                                            0.0003 -0.0000 -0.0000 -0.0000  0.0000
                                            0.0000  0.0001 -0.0000 -0.0000 -0.0000
                                           -0.0000  0.0000  0.0000  0.0000 -0.0000
                                            0.0000  0.0000 -0.0000 -0.0000  0.0000
                                            0.0000 -0.0000  0.0000 -0.0000  0.0000
                                           -0.0000
    49. (1.99922) CR ( 1) C  10           s(100.00%)p 0.00(  0.00%)
                                            1.0000  0.0001 -0.0000 -0.0000  0.0000
                                            0.0001 -0.0000 -0.0000 -0.0001  0.0000
                                            0.0000  0.0003 -0.0000 -0.0000 -0.0000
                                           -0.0000  0.0000  0.0000 -0.0000 -0.0000
                                           -0.0000 -0.0000  0.0000  0.0000  0.0000
                                            0.0000 -0.0000  0.0000 -0.0000  0.0000
                                           -0.0000
    50. (1.99915) CR ( 1) C  11           s(100.00%)p 0.00(  0.00%)
                                            1.0000  0.0001 -0.0000 -0.0000  0.0000
                                           -0.0002  0.0000  0.0000 -0.0000  0.0000
                                            0.0000  0.0002 -0.0000 -0.0000  0.0000
                                            0.0000 -0.0000 -0.0000  0.0000 -0.0000
                                            0.0000  0.0000 -0.0000  0.0000  0.0000
                                           -0.0000 -0.0000  0.0000  0.0000 -0.0000
                                           -0.0000
    51. (1.99936) CR ( 1) C  12           s(100.00%)p 0.00(  0.00%)
                                            1.0000  0.0002  0.0000  0.0000  0.0000
                                           -0.0001 -0.0000 -0.0000  0.0000  0.0000
                                            0.0000  0.0002  0.0000  0.0000  0.0000
                                            0.0000  0.0000 -0.0000 -0.0000  0.0000
                                           -0.0000 -0.0000 -0.0000 -0.0000 -0.0000
                                            0.0000  0.0000 -0.0000  0.0000  0.0000
                                            0.0000
    52. (1.99655) LP ( 1)Br   3           s( 89.20%)p 0.12( 10.80%)d 0.00(  0.00%)
                                                  f 0.00(  0.00%)
                                           -0.0000 -0.0000 -0.0001  0.9445 -0.0037
                                           -0.0001 -0.0000  0.0000 -0.0971  0.0031
                                           -0.0006 -0.0000  0.0001 -0.2375  0.0092
                                           -0.0011 -0.0000  0.0000 -0.2050  0.0016
                                            0.0001 -0.0000 -0.0024 -0.0004 -0.0002
                                            0.0000 -0.0017 -0.0000  0.0000 -0.0000
                                           -0.0036 -0.0003 -0.0000  0.0000  0.0032
                                            0.0005  0.0003  0.0000  0.0016  0.0005
                                            0.0002  0.0009  0.0003  0.0002  0.0006
                                           -0.0008  0.0008  0.0002
    53. (1.97519) LP ( 2)Br   3           s(  1.00%)p99.21( 98.99%)d 0.01(  0.01%)
                                                  f 0.00(  0.00%)
                                           -0.0000  0.0000 -0.0001  0.0999  0.0002
                                            0.0000  0.0000  0.0001  0.5157  0.0060
                                           -0.0006 -0.0000  0.0001 -0.4415 -0.0038
                                            0.0006  0.0000  0.0001  0.7272  0.0074
                                           -0.0005 -0.0001  0.0026 -0.0009 -0.0004
                                           -0.0001  0.0038 -0.0010 -0.0005 -0.0002
                                            0.0062 -0.0005 -0.0008 -0.0000  0.0065
                                           -0.0003 -0.0008 -0.0000  0.0021 -0.0010
                                           -0.0001 -0.0023 -0.0004  0.0027 -0.0015
                                            0.0032 -0.0001  0.0039
    54. (1.91675) LP ( 3)Br   3           s(  0.57%)p99.99( 99.41%)d 0.03(  0.02%)
                                                  f 0.01(  0.00%)
                                           -0.0000  0.0000 -0.0001  0.0756  0.0018
                                            0.0003 -0.0000  0.0002 -0.7854 -0.0057
                                            0.0017 -0.0000  0.0003  0.0982  0.0012
                                            0.0004  0.0000  0.0000  0.6062  0.0054
                                           -0.0007  0.0001 -0.0087  0.0010  0.0012
                                           -0.0001  0.0018  0.0003 -0.0003 -0.0003
                                            0.0077 -0.0004 -0.0009  0.0004 -0.0049
                                            0.0008  0.0007  0.0000  0.0029 -0.0006
                                           -0.0004 -0.0023  0.0015  0.0018 -0.0023
                                            0.0004  0.0023 -0.0037
    55. (1.97651) LP ( 1) O   5           s( 57.72%)p 0.73( 42.17%)d 0.00(  0.10%)
                                                  f 0.00(  0.00%)
                                           -0.0004  0.7598 -0.0037  0.0002 -0.0002
                                           -0.0156 -0.0002 -0.0005  0.2740 -0.0000
                                            0.0018 -0.5885  0.0004 -0.0035  0.0021
                                            0.0006 -0.0015  0.0003  0.0218  0.0005
                                            0.0046 -0.0002 -0.0230 -0.0004 -0.0020
                                           -0.0008  0.0031  0.0015 -0.0002 -0.0003
                                           -0.0005
    56. (1.87375) LP ( 2) O   5           s(  0.01%)p99.99( 99.76%)d15.34(  0.22%)
                                                  f 1.02(  0.01%)
                                            0.0000  0.0115 -0.0028  0.0008  0.0002
                                           -0.8365 -0.0137 -0.0005  0.4793  0.0087
                                            0.0008  0.2602  0.0049 -0.0001  0.0196
                                           -0.0005 -0.0335  0.0006  0.0137 -0.0001
                                            0.0069 -0.0001  0.0205 -0.0005  0.0060
                                           -0.0072  0.0015  0.0017  0.0066  0.0018
                                           -0.0020
    57. (0.79458) LP*( 1) C   9           s(  0.00%)p 1.00( 99.92%)d 0.00(  0.06%)
                                                  f 0.00(  0.02%)
                                           -0.0000  0.0005  0.0005 -0.0004  0.0000
                                           -0.0556  0.0004 -0.0009 -0.9799  0.0100
                                           -0.0173 -0.1883  0.0018 -0.0033  0.0231
                                            0.0013  0.0048  0.0002  0.0048  0.0006
                                            0.0036  0.0002  0.0013  0.0003 -0.0043
                                           -0.0002 -0.0083 -0.0054  0.0009 -0.0017
                                           -0.0108
    58. (0.00604) RY*( 1) C   1           s(  2.74%)p33.09( 90.76%)d 2.35(  6.46%)
                                                  f 0.01(  0.04%)
                                            0.0000  0.0092  0.1532  0.0621 -0.0005
                                           -0.0037  0.5065  0.0064  0.0034 -0.1826
                                            0.0319 -0.0169  0.7850 -0.0090 -0.0212
                                            0.0090  0.0490 -0.0991  0.0040  0.0354
                                           -0.0121  0.1375 -0.0293 -0.1751 -0.0014
                                            0.0085 -0.0065  0.0021 -0.0089  0.0134
                                            0.0046
    59. (0.00350) RY*( 2) C   1           s(  2.78%)p33.01( 91.75%)d 1.93(  5.35%)
                                                  f 0.04(  0.12%)
                                            0.0000 -0.0014  0.1666 -0.0039 -0.0013
                                           -0.0014  0.5625 -0.0139 -0.0006  0.7416
                                            0.0392  0.0024 -0.2222  0.0006 -0.0630
                                            0.1281  0.1455  0.0306 -0.0563 -0.0625
                                            0.0516 -0.0286 -0.0196  0.0104 -0.0178
                                            0.0215 -0.0119 -0.0066  0.0124 -0.0020
                                            0.0092
    60. (0.00320) RY*( 3) C   1           s(  4.78%)p19.03( 90.98%)d 0.87(  4.16%)
                                                  f 0.02(  0.08%)
                                            0.0000  0.0006  0.2110 -0.0573  0.0013
                                           -0.0103 -0.6325  0.0558  0.0057  0.5472
                                            0.0051 -0.0049  0.4540 -0.0305  0.0105
                                            0.1093  0.0450 -0.1331 -0.0477  0.0096
                                            0.0076  0.0355  0.0141 -0.0769  0.0172
                                           -0.0072 -0.0060 -0.0123  0.0109  0.0048
                                            0.0102
    61. (0.00120) RY*( 4) C   1           s( 14.61%)p 0.03(  0.47%)d 5.67( 82.79%)
                                                  f 0.15(  2.13%)
                                           -0.0000 -0.0044  0.3749 -0.0738 -0.0091
                                            0.0307  0.0126  0.0059  0.0142 -0.0106
                                           -0.0214 -0.0076 -0.0416  0.0319 -0.4296
                                           -0.0854 -0.5997  0.2532 -0.1056  0.0754
                                            0.0520 -0.0096  0.3986 -0.1836  0.0001
                                           -0.0617 -0.0255  0.0188  0.0083 -0.1117
                                           -0.0626
    62. (0.00096) RY*( 5) C   1           s( 31.14%)p 0.14(  4.43%)d 2.03( 63.25%)
                                                  f 0.04(  1.19%)
                                           -0.0000  0.0059  0.5169 -0.2100  0.0069
                                            0.0108  0.0106  0.0782 -0.0265 -0.1037
                                            0.0012  0.0013 -0.1582  0.0386  0.6620
                                            0.0040  0.0784  0.1558  0.0861 -0.0078
                                           -0.2329  0.1390  0.1655 -0.2353  0.0389
                                            0.0439  0.0173 -0.0268  0.0074  0.0353
                                            0.0780
    63. (0.00042) RY*( 6) C   1           s(  5.94%)p 0.73(  4.33%)d15.00( 89.14%)
                                                  f 0.10(  0.59%)
                                            0.0000 -0.0080  0.1741  0.1695  0.0183
                                           -0.0089 -0.0266 -0.0652 -0.0122 -0.0993
                                           -0.1026  0.0007 -0.0424 -0.1262 -0.0955
                                            0.1089  0.2412 -0.2318  0.5440 -0.3251
                                            0.3641 -0.2150  0.4162 -0.0694  0.0206
                                            0.0327  0.0044 -0.0124  0.0366 -0.0020
                                           -0.0534
    64. (0.00036) RY*( 7) C   1           s( 19.88%)p 0.65( 12.89%)d 3.31( 65.87%)
                                                  f 0.07(  1.37%)
                                            0.0000 -0.0004  0.4448  0.0282  0.0103
                                           -0.0272 -0.0954 -0.0368  0.0065 -0.2723
                                            0.1332  0.0057 -0.1594 -0.0164 -0.4511
                                            0.3116  0.4654 -0.0598 -0.2852  0.1051
                                           -0.1614  0.0302 -0.1332  0.0305 -0.0017
                                            0.0754 -0.0257 -0.0131  0.0233  0.0299
                                            0.0756
    65. (0.00026) RY*( 8) C   1           s( 20.24%)p 0.32(  6.47%)d 3.01( 60.84%)
                                                  f 0.61( 12.45%)
                                           -0.0000 -0.0049  0.3797  0.2388  0.0341
                                            0.0036  0.0150 -0.1347 -0.0028 -0.0638
                                            0.1063 -0.0204  0.0270 -0.1726  0.1968
                                            0.1022 -0.3719 -0.0602 -0.0187 -0.1186
                                            0.1846 -0.2013 -0.3636  0.4428  0.0957
                                           -0.2134  0.0175 -0.2093  0.0701  0.1077
                                            0.0955
    66. (0.00019) RY*( 9) C   1           s( 39.02%)p 0.10(  3.75%)d 1.34( 52.12%)
                                                  f 0.13(  5.12%)
                                            0.0000 -0.0055  0.1411  0.6082 -0.0187
                                           -0.0188 -0.1079  0.0689  0.0053  0.0570
                                            0.0125 -0.0136 -0.0689  0.1111 -0.0619
                                           -0.2971  0.1025  0.3544  0.1808 -0.0272
                                            0.1346  0.3411 -0.2843 -0.2102 -0.1344
                                           -0.0468  0.0395  0.1145 -0.0480  0.0835
                                           -0.0834
    67. (0.00015) RY*(10) C   1           s( 10.60%)p 0.50(  5.27%)d 7.13( 75.55%)
                                                  f 0.81(  8.57%)
                                           -0.0000 -0.0129  0.0837  0.3136  0.0221
                                            0.0030  0.0121 -0.1360 -0.0021 -0.0125
                                           -0.1494 -0.0059 -0.0813  0.0706  0.2490
                                           -0.2286  0.0728 -0.4053 -0.5082  0.2598
                                            0.2775 -0.0491  0.2572 -0.0186 -0.1053
                                           -0.0573 -0.1238  0.1644 -0.1226 -0.1161
                                           -0.0221
    68. (0.00012) RY*(11) C   1           s( 17.83%)p 1.54( 27.50%)d 2.92( 51.99%)
                                                  f 0.15(  2.68%)
                                           -0.0000  0.0135 -0.0852  0.4132 -0.0103
                                            0.0200 -0.0155 -0.3599 -0.0031  0.0720
                                            0.3526  0.0170  0.0057  0.1227  0.0273
                                            0.0719 -0.1389 -0.1658  0.0787 -0.1506
                                           -0.5959  0.0603  0.2692  0.0847 -0.0414
                                            0.0811  0.0277  0.0488  0.0668 -0.0993
                                            0.0317
    69. (0.00008) RY*(12) C   1           s(  1.17%)p29.87( 35.04%)d47.06( 55.20%)
                                                  f 7.32(  8.58%)
    70. (0.00005) RY*(13) C   1           s(  3.50%)p17.45( 61.04%)d 7.02( 24.55%)
                                                  f 3.12( 10.91%)
    71. (0.00003) RY*(14) C   1           s(  9.31%)p 4.48( 41.67%)d 2.60( 24.20%)
                                                  f 2.67( 24.82%)
    72. (0.00003) RY*(15) C   1           s(  8.96%)p 1.66( 14.87%)d 5.92( 53.05%)
                                                  f 2.58( 23.13%)
    73. (0.00000) RY*(16) C   1           s(  0.97%)p24.50( 23.81%)d75.11( 72.98%)
                                                  f 2.30(  2.24%)
    74. (0.00000) RY*(17) C   1           s( 93.23%)p 0.03(  2.84%)d 0.02(  1.68%)
                                                  f 0.02(  2.25%)
    75. (0.00000) RY*(18) C   1           s(  4.94%)p 7.04( 34.78%)d11.88( 58.74%)
                                                  f 0.31(  1.54%)
    76. (0.00000) RY*(19) C   1           s(  0.50%)p 5.25(  2.64%)d99.99( 96.56%)
                                                  f 0.59(  0.30%)
    77. (0.00001) RY*(20) C   1           s(  1.39%)p 2.73(  3.80%)d 3.80(  5.29%)
                                                  f64.35( 89.52%)
    78. (0.00001) RY*(21) C   1           s(  3.03%)p 4.35( 13.21%)d 5.89( 17.87%)
                                                  f21.71( 65.89%)
    79. (0.00000) RY*(22) C   1           s(  0.16%)p15.11(  2.36%)d27.49(  4.29%)
                                                  f99.99( 93.19%)
    80. (0.00001) RY*(23) C   1           s(  0.70%)p10.19(  7.15%)d19.10( 13.40%)
                                                  f99.99( 78.76%)
    81. (0.00001) RY*(24) C   1           s(  0.35%)p 7.40(  2.63%)d16.93(  6.01%)
                                                  f99.99( 91.01%)
    82. (0.00000) RY*(25) C   1           s(  1.62%)p 8.24( 13.37%)d 3.25(  5.27%)
                                                  f49.17( 79.74%)
    83. (0.00000) RY*(26) C   1           s(  0.66%)p 4.33(  2.87%)d 4.16(  2.76%)
                                                  f99.99( 93.71%)
    84. (0.00575) RY*( 1) C   2           s(  0.19%)p99.99( 90.18%)d47.42(  9.03%)
                                                  f 3.13(  0.60%)
                                            0.0000  0.0085 -0.0294  0.0301  0.0080
                                           -0.0161  0.3695 -0.0005 -0.0181 -0.2879
                                           -0.1087 -0.0149  0.8146  0.0782 -0.0293
                                            0.0270 -0.1098 -0.0034 -0.1943 -0.0424
                                            0.0181 -0.0851 -0.0941  0.1439 -0.0059
                                            0.0090  0.0341 -0.0430  0.0371  0.0365
                                            0.0115
    85. (0.00442) RY*( 2) C   2           s(  4.06%)p16.59( 67.30%)d 6.97( 28.27%)
                                                  f 0.09(  0.37%)
                                            0.0000  0.0016  0.1739 -0.1015 -0.0020
                                           -0.0158 -0.7316  0.1069 -0.0149 -0.1992
                                            0.0053  0.0137  0.2197 -0.1942  0.3464
                                            0.0039  0.0418 -0.0040 -0.3631  0.0603
                                            0.0649  0.0071 -0.1299 -0.0656 -0.0046
                                            0.0011  0.0331  0.0100  0.0124  0.0097
                                           -0.0474
    86. (0.00299) RY*( 3) C   2           s(  3.65%)p 7.21( 26.30%)d18.80( 68.60%)
                                                  f 0.40(  1.44%)
                                            0.0000  0.0009  0.1565 -0.1095  0.0041
                                            0.0052  0.0998 -0.0738 -0.0099 -0.3367
                                            0.1346  0.0173 -0.1863 -0.2847 -0.3936
                                           -0.0221 -0.2531  0.0863 -0.3014  0.0862
                                           -0.5485  0.1103 -0.1352 -0.1718 -0.0110
                                           -0.0002  0.0362  0.0471  0.0631 -0.0457
                                            0.0687
    87. (0.00193) RY*( 4) C   2           s( 23.70%)p 1.46( 34.70%)d 1.69( 40.13%)
                                                  f 0.06(  1.47%)
                                            0.0000 -0.0022  0.4480 -0.1903 -0.0091
                                           -0.0055 -0.1228  0.1272 -0.0060  0.4120
                                            0.0143 -0.0092  0.3770 -0.0588 -0.2716
                                           -0.0051  0.3093  0.0287  0.2181 -0.0529
                                           -0.3046  0.0908  0.2755 -0.0611 -0.0040
                                           -0.0063  0.0028  0.0932  0.0551 -0.0537
                                           -0.0084
    88. (0.00122) RY*( 5) C   2           s(  4.98%)p11.87( 59.11%)d 6.91( 34.41%)
                                                  f 0.30(  1.51%)
                                            0.0000  0.0158  0.0187  0.2217 -0.0072
                                           -0.0078  0.0504 -0.1437 -0.0347  0.6431
                                           -0.1983  0.0102  0.0603 -0.3317 -0.1209
                                           -0.0986 -0.2771 -0.0197 -0.3705  0.0933
                                            0.1971  0.1516 -0.1860  0.0119 -0.0122
                                            0.0253 -0.0249 -0.1131  0.0295  0.0060
                                            0.0020
    89. (0.00074) RY*( 6) C   2           s( 21.85%)p 1.29( 28.23%)d 2.08( 45.48%)
                                                  f 0.20(  4.44%)
                                            0.0000  0.0100  0.4630 -0.0618  0.0143
                                           -0.0092  0.3711 -0.2087 -0.0226 -0.1098
                                           -0.1949 -0.0220 -0.2210  0.0326  0.2748
                                           -0.0372  0.3318 -0.1341 -0.3944  0.0487
                                            0.1301  0.0857  0.2599  0.0086 -0.0560
                                           -0.0726  0.1344  0.0569  0.0331 -0.0348
                                           -0.1114
    90. (0.00051) RY*( 7) C   2           s(  7.04%)p 5.36( 37.73%)d 7.42( 52.26%)
                                                  f 0.42(  2.96%)
                                            0.0000  0.0009 -0.0996  0.2460  0.0037
                                           -0.0234 -0.2981 -0.2461 -0.0340 -0.1633
                                           -0.3542 -0.0199  0.0307  0.2697 -0.2882
                                           -0.0744 -0.1878  0.2699 -0.0746 -0.0180
                                            0.0700  0.1277  0.5350 -0.1117  0.0695
                                           -0.0955  0.0294 -0.0287  0.0757 -0.0405
                                           -0.0815
    91. (0.00035) RY*( 8) C   2           s(  5.85%)p 4.91( 28.70%)d10.43( 60.99%)
                                                  f 0.76(  4.45%)
                                            0.0000 -0.0012  0.2413 -0.0157  0.0009
                                           -0.0048 -0.1027  0.0035 -0.0371 -0.2898
                                           -0.3696  0.0087 -0.0787 -0.2196 -0.4734
                                            0.0153  0.1493 -0.1480  0.2453  0.0297
                                            0.4039 -0.0356 -0.2771  0.1978 -0.0957
                                            0.0328 -0.1201  0.1061 -0.0586 -0.0604
                                            0.0389
    92. (0.00029) RY*( 9) C   2           s( 28.15%)p 1.03( 28.88%)d 1.45( 40.87%)
                                                  f 0.07(  2.10%)
                                            0.0000 -0.0007 -0.3420  0.4056 -0.0066
                                            0.0209  0.0612  0.4768 -0.0143 -0.0792
                                           -0.0485 -0.0157 -0.0325 -0.2170 -0.1551
                                            0.0417  0.5321 -0.0152 -0.2421 -0.0536
                                           -0.0662  0.1284  0.0950 -0.0906  0.0325
                                            0.0486 -0.0186 -0.0864  0.0538  0.0813
                                           -0.0160
    93. (0.00021) RY*(10) C   2           s( 40.95%)p 0.86( 35.33%)d 0.52( 21.34%)
                                                  f 0.06(  2.38%)
                                           -0.0000 -0.0045  0.4614  0.4418  0.0369
                                           -0.0183  0.0455  0.5239  0.0048 -0.0188
                                           -0.1493  0.0065 -0.1066  0.2059  0.1239
                                           -0.1682 -0.3266  0.0164  0.0851  0.0228
                                           -0.1185 -0.1861 -0.0791  0.0117  0.1391
                                            0.0239  0.0253 -0.0048 -0.0164  0.0058
                                           -0.0539
    94. (0.00020) RY*(11) C   2           s( 14.26%)p 2.06( 29.32%)d 3.56( 50.71%)
                                                  f 0.40(  5.71%)
                                           -0.0000  0.0078  0.1733  0.3352 -0.0083
                                           -0.0183  0.0724 -0.1950  0.0082 -0.1707
                                            0.0780  0.0121  0.0975 -0.4524  0.2706
                                            0.2338 -0.1207 -0.0228  0.3621 -0.2591
                                            0.0332  0.3144  0.1367 -0.2174  0.0350
                                           -0.0279 -0.0501 -0.1534 -0.1322  0.0200
                                            0.1055
    95. (0.00012) RY*(12) C   2           s( 17.62%)p 2.94( 51.80%)d 1.50( 26.36%)
                                                  f 0.24(  4.22%)
                                            0.0000 -0.0171  0.1941  0.3710  0.0251
                                            0.0109 -0.0920 -0.2766 -0.0108 -0.0451
                                            0.5648  0.0030  0.0839  0.3237 -0.2124
                                           -0.1452  0.1847 -0.2007 -0.0423  0.1876
                                            0.1583  0.1485 -0.1788 -0.0836  0.1480
                                            0.0396 -0.0692 -0.0612  0.0765  0.0648
                                            0.0103
    96. (0.00010) RY*(13) C   2           s(  2.61%)p12.51( 32.62%)d21.55( 56.21%)
                                                  f 3.28(  8.56%)
                                           -0.0000 -0.0012 -0.0442  0.1513  0.0353
                                            0.0215 -0.0441 -0.2962  0.0047  0.0625
                                           -0.4278 -0.0040  0.0011  0.2216  0.1912
                                            0.0525  0.2803  0.1658  0.0925 -0.0835
                                           -0.3615  0.1390 -0.4947 -0.0801  0.1809
                                           -0.0015 -0.0265  0.1382  0.1194 -0.0289
                                            0.1340
    97. (0.00005) RY*(14) C   2           s(  1.05%)p16.12( 16.91%)d66.32( 69.57%)
                                                  f11.89( 12.47%)
    98. (0.00003) RY*(15) C   2           s(  8.37%)p 0.83(  6.94%)d 9.36( 78.35%)
                                                  f 0.76(  6.34%)
    99. (0.00003) RY*(16) C   2           s(  3.69%)p 0.92(  3.41%)d 8.74( 32.25%)
                                                  f16.42( 60.64%)
   100. (0.00001) RY*(17) C   2           s(  1.56%)p 4.91(  7.66%)d45.82( 71.40%)
                                                  f12.44( 19.39%)
   101. (0.00000) RY*(18) C   2           s( 97.36%)p 0.00(  0.42%)d 0.01(  0.84%)
                                                  f 0.01(  1.37%)
   102. (0.00001) RY*(19) C   2           s(  0.28%)p 8.82(  2.46%)d99.99( 69.49%)
                                                  f99.71( 27.77%)
   103. (0.00000) RY*(20) C   2           s(  5.63%)p 0.26(  1.47%)d 1.07(  6.02%)
                                                  f15.42( 86.87%)
   104. (0.00000) RY*(21) C   2           s(  3.13%)p 1.13(  3.54%)d25.76( 80.62%)
                                                  f 4.06( 12.71%)
   105. (0.00000) RY*(22) C   2           s(  0.71%)p 2.44(  1.74%)d 6.93(  4.92%)
                                                  f99.99( 92.63%)
   106. (0.00000) RY*(23) C   2           s(  1.83%)p 0.80(  1.47%)d 7.52( 13.76%)
                                                  f45.36( 82.94%)
   107. (0.00000) RY*(24) C   2           s(  0.79%)p 1.60(  1.27%)d15.64( 12.42%)
                                                  f99.99( 85.51%)
   108. (0.00000) RY*(25) C   2           s(  0.59%)p 3.05(  1.80%)d 4.60(  2.72%)
                                                  f99.99( 94.89%)
   109. (0.00000) RY*(26) C   2           s(  0.09%)p16.75(  1.48%)d99.99( 22.22%)
                                                  f99.99( 76.21%)
   110. (0.00158) RY*( 1)Br   3           s(  1.33%)p29.39( 38.96%)d42.25( 56.01%)
                                                  f 2.79(  3.70%)
                                           -0.0000  0.0000  0.0000 -0.0009  0.1146
                                           -0.0111  0.0000 -0.0000 -0.0071 -0.5692
                                           -0.1068  0.0000 -0.0000 -0.0050  0.0669
                                            0.0519 -0.0000 -0.0000  0.0001  0.2124
                                            0.0423 -0.0000  0.5566 -0.0291 -0.0407
                                            0.0000 -0.0314 -0.0867 -0.0032  0.0000
                                           -0.1308  0.1319  0.0123 -0.0000  0.4242
                                            0.0098 -0.0215 -0.0000 -0.1507 -0.0349
                                            0.0139 -0.0098 -0.0686 -0.0482  0.0353
                                           -0.0178 -0.0933  0.1401
   111. (0.00128) RY*( 2)Br   3           s(  0.83%)p54.32( 44.87%)d60.26( 49.77%)
                                                  f 5.49(  4.53%)
                                           -0.0000  0.0000  0.0000 -0.0023  0.0908
                                            0.0034  0.0000 -0.0000 -0.0050  0.1451
                                            0.0504  0.0000 -0.0000 -0.0135 -0.3625
                                           -0.0041 -0.0000 -0.0000 -0.0023  0.5264
                                            0.1282  0.0000 -0.0552  0.0179  0.0068
                                            0.0000 -0.2818  0.0134  0.0164  0.0000
                                           -0.3458  0.1607  0.0293 -0.0000 -0.2971
                                            0.0760 -0.0037 -0.0000 -0.4163  0.0183
                                            0.0219  0.0583 -0.0470 -0.1449  0.0456
                                           -0.1136  0.0002 -0.0613
   112. (0.00033) RY*( 3)Br   3           s(  0.37%)p77.58( 28.65%)d99.99( 68.68%)
                                                  f 6.25(  2.31%)
                                           -0.0000  0.0000  0.0000 -0.0041  0.0601
                                           -0.0078  0.0000 -0.0000 -0.0107 -0.3216
                                            0.0447  0.0000 -0.0000 -0.0342 -0.3495
                                            0.0562 -0.0000 -0.0000 -0.0083 -0.2133
                                           -0.0942  0.0000  0.1174 -0.2081  0.0722
                                            0.0000  0.3997  0.3232  0.0048  0.0000
                                           -0.1110 -0.3568 -0.0084 -0.0000 -0.3396
                                           -0.1962 -0.0361 -0.0000 -0.2527 -0.0220
                                           -0.0337  0.0051  0.0070  0.0152  0.0435
                                            0.1353  0.0478  0.0174
   113. (0.00030) RY*( 4)Br   3           s( 60.38%)p 0.05(  2.84%)d 0.54( 32.59%)
                                                  f 0.07(  4.19%)
                                           -0.0000  0.0000  0.0000 -0.0032  0.7755
                                           -0.0500  0.0000 -0.0000 -0.0028 -0.1160
                                            0.0213  0.0000 -0.0000 -0.0217 -0.0070
                                            0.0909 -0.0000 -0.0000 -0.0128  0.0739
                                           -0.0085  0.0000 -0.1823  0.1693 -0.0207
                                            0.0000  0.0763  0.0155 -0.0298  0.0000
                                            0.3273  0.2434 -0.0673 -0.0000 -0.1127
                                           -0.2132  0.0421 -0.0000  0.0482 -0.1515
                                            0.0234 -0.1088 -0.0291 -0.0606 -0.1049
                                            0.0653 -0.0813 -0.0602
   114. (0.00017) RY*( 5)Br   3           s(  0.08%)p99.99( 36.43%)d99.99( 58.93%)
                                                  f58.27(  4.56%)
                                           -0.0000  0.0000  0.0000 -0.0046  0.0271
                                           -0.0052  0.0000 -0.0000 -0.0169  0.1322
                                            0.0565  0.0000 -0.0000 -0.0305 -0.5688
                                           -0.0018 -0.0000 -0.0000 -0.0124 -0.1363
                                           -0.0126  0.0000  0.4506  0.1993  0.0255
                                            0.0000 -0.2486 -0.2850  0.0163  0.0000
                                            0.3699 -0.1120  0.0267 -0.0000 -0.0752
                                           -0.0010 -0.0518 -0.0000  0.1364  0.1584
                                           -0.0198  0.0559  0.0023  0.1906 -0.0760
                                           -0.0158 -0.0131  0.0008
   115. (0.00014) RY*( 6)Br   3           s(  3.11%)p 7.48( 23.30%)d22.53( 70.19%)
                                                  f 1.09(  3.39%)
                                            0.0000 -0.0000 -0.0000  0.0010  0.1733
                                           -0.0335 -0.0000  0.0000 -0.0048  0.4506
                                            0.1298 -0.0000  0.0000  0.0091  0.0338
                                            0.0805  0.0000  0.0000  0.0040  0.0596
                                           -0.0428 -0.0000  0.3393  0.3856 -0.0163
                                           -0.0000  0.3017  0.3554 -0.0239 -0.0000
                                           -0.3442 -0.0089 -0.0357  0.0000  0.1839
                                           -0.0536 -0.0269 -0.0000  0.1830  0.1700
                                           -0.0163  0.0829 -0.0403 -0.0594  0.0322
                                            0.1042 -0.0916 -0.0401
   116. (0.00010) RY*( 7)Br   3           s(  0.10%)p92.12(  8.90%)d99.99( 81.44%)
                                                  f99.10(  9.57%)
                                            0.0000 -0.0000 -0.0000  0.0006  0.0293
                                            0.0103 -0.0000  0.0000  0.0053 -0.1597
                                            0.0570 -0.0000  0.0000  0.0042  0.2093
                                            0.0459  0.0000  0.0000  0.0053  0.1080
                                            0.0504  0.0000  0.0681 -0.1406  0.0475
                                           -0.0000 -0.1635 -0.2327  0.0063 -0.0000
                                           -0.3131 -0.0377 -0.0049  0.0000 -0.3935
                                           -0.4221  0.0677  0.0000  0.4437  0.2638
                                           -0.0565  0.0637  0.0201  0.1261  0.1048
                                            0.0137 -0.2533 -0.0023
   117. (0.00006) RY*( 8)Br   3           s(  7.17%)p 2.99( 21.41%)d 8.90( 63.81%)
                                                  f 1.06(  7.61%)
   118. (0.00002) RY*( 9)Br   3           s(  5.72%)p 3.20( 18.33%)d 8.49( 48.58%)
                                                  f 4.78( 27.37%)
   119. (0.00001) RY*(10)Br   3           s(  7.58%)p 1.17(  8.85%)d10.59( 80.33%)
                                                  f 0.43(  3.24%)
   120. (0.00001) RY*(11)Br   3           s(  6.38%)p 1.06(  6.75%)d13.45( 85.87%)
                                                  f 0.16(  0.99%)
   121. (0.00001) RY*(12)Br   3           s(  0.51%)p68.65( 35.17%)d99.99( 58.30%)
                                                  f11.74(  6.01%)
   122. (0.00000) RY*(13)Br   3           s(  1.13%)p86.07( 97.09%)d 0.95(  1.07%)
                                                  f 0.63(  0.71%)
   123. (0.00001) RY*(14)Br   3           s(  1.86%)p13.85( 25.72%)d37.41( 69.45%)
                                                  f 1.61(  2.98%)
   124. (0.00000) RY*(15)Br   3           s( 94.94%)p 0.00(  0.17%)d 0.05(  4.48%)
                                                  f 0.00(  0.41%)
   125. (0.00000) RY*(16)Br   3           s(  0.02%)p99.99( 95.45%)d99.99(  3.07%)
                                                  f82.12(  1.46%)
   126. (0.00000) RY*(17)Br   3           s(  0.61%)p 0.29(  0.18%)d99.99( 99.03%)
                                                  f 0.28(  0.17%)
   127. (0.00001) RY*(18)Br   3           s(  0.35%)p99.99( 92.75%)d12.59(  4.36%)
                                                  f 7.35(  2.54%)
   128. (0.00000) RY*(19)Br   3           s(  0.00%)p 1.00(  0.31%)d99.99( 99.36%)
                                                  f 1.08(  0.33%)
   129. (0.00000) RY*(20)Br   3           s(  0.18%)p 2.37(  0.42%)d99.99( 99.38%)
                                                  f 0.15(  0.03%)
   130. (0.00000) RY*(21)Br   3           s(  0.30%)p 0.46(  0.14%)d99.99( 99.22%)
                                                  f 1.17(  0.35%)
   131. (0.00001) RY*(22)Br   3           s(  3.08%)p 1.71(  5.27%)d29.55( 91.14%)
                                                  f 0.17(  0.51%)
   132. (0.00000) RY*(23)Br   3           s(  0.01%)p21.19(  0.26%)d99.99( 99.68%)
                                                  f 4.35(  0.05%)
   133. (0.00000) RY*(24)Br   3           s(  0.50%)p 1.46(  0.73%)d10.01(  5.00%)
                                                  f99.99( 93.77%)
   134. (0.00000) RY*(25)Br   3           s(  0.43%)p 4.58(  1.96%)d12.53(  5.36%)
                                                  f99.99( 92.25%)
   135. (0.00000) RY*(26)Br   3           s(  0.54%)p 3.25(  1.77%)d15.89(  8.64%)
                                                  f99.99( 89.05%)
   136. (0.00000) RY*(27)Br   3           s(  0.46%)p 2.88(  1.34%)d49.99( 23.22%)
                                                  f99.99( 74.98%)
   137. (0.00000) RY*(28)Br   3           s(  0.69%)p 0.80(  0.55%)d13.46(  9.30%)
                                                  f99.99( 89.45%)
   138. (0.00000) RY*(29)Br   3           s(  1.28%)p 0.80(  1.02%)d13.05( 16.72%)
                                                  f63.21( 80.97%)
   139. (0.00000) RY*(30)Br   3           s(  0.01%)p60.27(  0.79%)d99.99(  6.74%)
                                                  f99.99( 92.45%)
   140. (0.01587) RY*( 1) C   4           s( 19.86%)p 4.02( 79.75%)d 0.02(  0.36%)
                                                  f 0.00(  0.03%)
                                           -0.0000 -0.0288  0.4445  0.0122 -0.0040
                                            0.0097  0.0269  0.0103 -0.0294  0.3333
                                            0.0140  0.0487 -0.8257 -0.0179 -0.0101
                                            0.0156  0.0069 -0.0151  0.0169  0.0245
                                           -0.0053  0.0016 -0.0409 -0.0201 -0.0061
                                           -0.0122  0.0111  0.0056 -0.0023  0.0016
                                           -0.0008
   141. (0.00415) RY*( 2) C   4           s(  1.46%)p56.12( 81.86%)d11.33( 16.53%)
                                                  f 0.10(  0.15%)
                                           -0.0000 -0.0147  0.0481  0.1093 -0.0110
                                            0.0115 -0.5984 -0.0148 -0.0012  0.6277
                                           -0.0536  0.0109  0.2512 -0.0112  0.1914
                                            0.0203 -0.2070  0.1282  0.1506  0.0238
                                            0.0765 -0.0375  0.1877 -0.0572 -0.0116
                                            0.0244  0.0082  0.0177 -0.0103 -0.0155
                                            0.0048
   142. (0.00209) RY*( 3) C   4           s(  2.69%)p28.72( 77.16%)d 7.35( 19.76%)
                                                  f 0.14(  0.39%)
                                           -0.0000 -0.0020  0.1315 -0.0978 -0.0037
                                           -0.0151 -0.6226  0.0013 -0.0266 -0.5605
                                            0.1716 -0.0034 -0.1786  0.0870  0.0988
                                           -0.0685 -0.3414 -0.0991 -0.1130 -0.0752
                                           -0.1535 -0.0927 -0.0614 -0.0494 -0.0279
                                           -0.0234 -0.0130 -0.0422  0.0142 -0.0133
                                            0.0153
   143. (0.00123) RY*( 4) C   4           s(  2.88%)p 7.42( 21.36%)d25.82( 74.35%)
                                                  f 0.49(  1.41%)
                                            0.0000 -0.0049  0.1671 -0.0288 -0.0045
                                           -0.0194 -0.3800  0.0467  0.0084  0.0790
                                            0.0207  0.0141  0.1340 -0.2044 -0.2992
                                            0.0478  0.6455 -0.0750 -0.3060  0.0586
                                           -0.1645 -0.0075 -0.2988  0.1260 -0.0489
                                            0.0573 -0.0204  0.0379 -0.0702 -0.0267
                                            0.0298
   144. (0.00058) RY*( 5) C   4           s(  3.74%)p 1.65(  6.18%)d23.35( 87.31%)
                                                  f 0.74(  2.77%)
                                           -0.0000  0.0013  0.1855  0.0546 -0.0023
                                            0.0165 -0.0426  0.1245  0.0091 -0.1929
                                            0.0747  0.0186  0.0072  0.0305 -0.1914
                                           -0.1471  0.2630  0.0662  0.4430  0.2101
                                           -0.2928 -0.0851  0.6334  0.0819  0.0625
                                            0.0788 -0.0219  0.0806 -0.0013 -0.0888
                                           -0.0521
   145. (0.00050) RY*( 6) C   4           s( 20.89%)p 0.53( 11.11%)d 3.16( 66.09%)
                                                  f 0.09(  1.91%)
                                           -0.0000  0.0029  0.4470 -0.0956  0.0050
                                            0.0038  0.1652  0.1048 -0.0202 -0.0211
                                           -0.1449  0.0268  0.2078 -0.0841  0.4126
                                           -0.0845  0.0326 -0.0965 -0.5496  0.0174
                                           -0.0528  0.0989  0.3758 -0.1303  0.0429
                                           -0.0595 -0.0786 -0.0736  0.0108  0.0252
                                           -0.0376
   146. (0.00027) RY*( 7) C   4           s( 18.90%)p 1.98( 37.36%)d 2.15( 40.57%)
                                                  f 0.17(  3.18%)
                                           -0.0000 -0.0015 -0.1454  0.4081 -0.0355
                                            0.0039 -0.1691  0.3037  0.0020 -0.2649
                                           -0.3820 -0.0022 -0.1874  0.0391  0.1320
                                            0.1093  0.2482  0.3122 -0.0530  0.0959
                                            0.3790  0.0789  0.0375 -0.2323 -0.0331
                                            0.0187  0.0820 -0.0423  0.0094 -0.1049
                                           -0.1034
   147. (0.00021) RY*( 8) C   4           s(  9.54%)p 2.20( 20.95%)d 7.19( 68.62%)
                                                  f 0.09(  0.89%)
                                            0.0000  0.0029  0.2970 -0.0847  0.0069
                                            0.0062 -0.0901 -0.3608  0.0118 -0.1691
                                           -0.0431  0.0087  0.0727 -0.1876 -0.1477
                                           -0.0659  0.0093 -0.1152  0.1575 -0.0934
                                            0.6518  0.3103  0.1132  0.2814  0.0246
                                           -0.0065 -0.0361 -0.0036 -0.0048 -0.0711
                                            0.0431
   148. (0.00014) RY*( 9) C   4           s( 50.56%)p 0.33( 16.58%)d 0.62( 31.39%)
                                                  f 0.03(  1.47%)
                                           -0.0000  0.0055  0.6091  0.3634  0.0500
                                           -0.0001  0.1633  0.1300 -0.0118 -0.1014
                                           -0.0199  0.0078  0.3271  0.0664 -0.1267
                                            0.2032 -0.2135  0.0866  0.2150  0.0379
                                           -0.0345 -0.1644 -0.3480 -0.0800 -0.0687
                                           -0.0313  0.0783  0.0314 -0.0311  0.0304
                                            0.0009
   149. (0.00007) RY*(10) C   4           s( 43.95%)p 0.38( 16.57%)d 0.76( 33.33%)
                                                  f 0.14(  6.15%)
   150. (0.00002) RY*(11) C   4           s(  4.46%)p12.94( 57.72%)d 6.44( 28.73%)
                                                  f 2.04(  9.09%)
   151. (0.00000) RY*(12) C   4           s(  0.68%)p80.68( 54.94%)d63.74( 43.40%)
                                                  f 1.43(  0.98%)
   152. (0.00001) RY*(13) C   4           s(  5.01%)p16.94( 84.82%)d 2.01( 10.06%)
                                                  f 0.02(  0.11%)
   153. (0.00000) RY*(14) C   4           s( 94.71%)p 0.00(  0.18%)d 0.05(  4.92%)
                                                  f 0.00(  0.19%)
   154. (0.00000) RY*(15) C   4           s(  4.77%)p 0.08(  0.39%)d19.86( 94.65%)
                                                  f 0.04(  0.19%)
   155. (0.00000) RY*(16) C   4           s(  1.66%)p 7.24( 12.00%)d50.43( 83.57%)
                                                  f 1.67(  2.77%)
   156. (0.00000) RY*(17) C   4           s(  1.16%)p 3.96(  4.59%)d81.16( 94.05%)
                                                  f 0.17(  0.20%)
   157. (0.00000) RY*(18) C   4           s(  8.70%)p 0.37(  3.23%)d10.05( 87.49%)
                                                  f 0.07(  0.58%)
   158. (0.00000) RY*(19) C   4           s(  0.81%)p 3.59(  2.91%)d99.99( 96.23%)
                                                  f 0.06(  0.05%)
   159. (0.00000) RY*(20) C   4           s(  0.17%)p14.35(  2.43%)d29.00(  4.91%)
                                                  f99.99( 92.49%)
   160. (0.00000) RY*(21) C   4           s(  1.02%)p 1.86(  1.90%)d 1.34(  1.36%)
                                                  f93.88( 95.72%)
   161. (0.00000) RY*(22) C   4           s(  0.41%)p 0.90(  0.37%)d 3.52(  1.46%)
                                                  f99.99( 97.75%)
   162. (0.00000) RY*(23) C   4           s(  0.03%)p45.89(  1.56%)d75.22(  2.56%)
                                                  f99.99( 95.84%)
   163. (0.00000) RY*(24) C   4           s(  0.49%)p 1.45(  0.72%)d 3.44(  1.70%)
                                                  f99.99( 97.09%)
   164. (0.00000) RY*(25) C   4           s(  0.72%)p 4.18(  3.01%)d 4.43(  3.19%)
                                                  f99.99( 93.09%)
   165. (0.00000) RY*(26) C   4           s(  0.57%)p 1.49(  0.84%)d 5.46(  3.10%)
                                                  f99.99( 95.49%)
   166. (0.00252) RY*( 1) O   5           s(  0.13%)p99.99( 96.81%)d23.20(  2.98%)
                                                  f 0.57(  0.07%)
                                            0.0000 -0.0013  0.0357 -0.0033 -0.0008
                                           -0.0111  0.8098 -0.0760  0.0075 -0.4677
                                            0.0477  0.0004 -0.2920  0.0154  0.0472
                                            0.0573 -0.0433 -0.1128  0.0242  0.0505
                                           -0.0187  0.0326  0.0516  0.0503  0.0166
                                            0.0079 -0.0071 -0.0153  0.0095  0.0037
                                           -0.0030
   167. (0.00047) RY*( 2) O   5           s( 62.33%)p 0.41( 25.33%)d 0.19( 12.00%)
                                                  f 0.01(  0.34%)
                                           -0.0000 -0.0033  0.7880  0.0475 -0.0072
                                            0.0085 -0.2948  0.1088 -0.0052 -0.3012
                                            0.0126 -0.0114 -0.2441 -0.0627  0.1947
                                           -0.0883 -0.1933  0.1057  0.0654  0.0527
                                            0.0765  0.0198  0.1056 -0.0356  0.0012
                                           -0.0494 -0.0021  0.0156  0.0239  0.0094
                                           -0.0085
   168. (0.00040) RY*( 3) O   5           s( 20.98%)p 3.43( 72.05%)d 0.32(  6.67%)
                                                  f 0.01(  0.29%)
                                            0.0000 -0.0056  0.4580 -0.0003 -0.0075
                                           -0.0026  0.4050 -0.0482  0.0085  0.7429
                                            0.0058 -0.0054 -0.0250 -0.0379  0.0942
                                           -0.0167  0.1612 -0.0845 -0.0408 -0.0462
                                            0.0914 -0.0816 -0.0291 -0.0692 -0.0144
                                            0.0137  0.0159  0.0400 -0.0156 -0.0143
                                           -0.0149
   169. (0.00022) RY*( 4) O   5           s(  3.63%)p21.02( 76.40%)d 5.42( 19.71%)
                                                  f 0.07(  0.25%)
                                           -0.0000  0.0207  0.1721 -0.0787 -0.0110
                                            0.0078  0.1987  0.0476 -0.0220 -0.1839
                                           -0.0646  0.0360  0.8153 -0.1329  0.0211
                                            0.0126 -0.1740  0.0255  0.2792 -0.0198
                                            0.2231 -0.0482 -0.1776 -0.0599 -0.0001
                                           -0.0101  0.0098  0.0383  0.0283  0.0068
                                           -0.0049
   170. (0.00013) RY*( 5) O   5           s( 11.44%)p 1.92( 21.99%)d 5.60( 64.02%)
                                                  f 0.22(  2.56%)
                                           -0.0000 -0.0005 -0.2056  0.2685  0.0001
                                            0.0253  0.0913  0.1549 -0.0129  0.1850
                                           -0.3352 -0.0120 -0.1466  0.1360 -0.0318
                                           -0.0065 -0.5985  0.1476  0.0654 -0.0949
                                            0.3875 -0.1162  0.2732 -0.0863  0.0840
                                           -0.0810 -0.0438  0.0523  0.0788  0.0194
                                           -0.0278
   171. (0.00011) RY*( 6) O   5           s(  7.19%)p 2.35( 16.91%)d 9.77( 70.23%)
                                                  f 0.79(  5.67%)
                                            0.0000  0.0193  0.0403  0.2643 -0.0005
                                           -0.0067 -0.0866 -0.2299 -0.0186  0.0046
                                            0.1137  0.0547 -0.2321  0.1963 -0.2928
                                            0.0881 -0.0701 -0.1152  0.3110  0.0783
                                            0.2834 -0.0204 -0.6342  0.0699 -0.1491
                                           -0.0098  0.1248  0.0619 -0.1021 -0.0478
                                           -0.0480
   172. (0.00007) RY*( 7) O   5           s(  2.97%)p 5.38( 15.97%)d25.95( 77.10%)
                                                  f 1.33(  3.96%)
   173. (0.00003) RY*( 8) O   5           s(  0.50%)p87.39( 43.63%)d99.99( 52.93%)
                                                  f 5.89(  2.94%)
   174. (0.00002) RY*( 9) O   5           s(  6.69%)p 6.77( 45.27%)d 6.66( 44.53%)
                                                  f 0.53(  3.51%)
   175. (0.00002) RY*(10) O   5           s(  1.58%)p26.91( 42.38%)d32.98( 51.94%)
                                                  f 2.60(  4.10%)
   176. (0.00002) RY*(11) O   5           s( 29.80%)p 0.88( 26.30%)d 1.35( 40.28%)
                                                  f 0.12(  3.62%)
   177. (0.00000) RY*(12) O   5           s( 99.66%)p 0.00(  0.16%)d 0.00(  0.18%)
                                                  f 0.00(  0.00%)
   178. (0.00000) RY*(13) O   5           s(  0.00%)p 1.00(  6.16%)d15.22( 93.78%)
                                                  f 0.01(  0.05%)
   179. (0.00001) RY*(14) O   5           s( 35.55%)p 1.55( 54.97%)d 0.27(  9.44%)
                                                  f 0.00(  0.04%)
   180. (0.00000) RY*(15) O   5           s(  0.70%)p 3.13(  2.19%)d99.99( 97.07%)
                                                  f 0.06(  0.04%)
   181. (0.00000) RY*(16) O   5           s( 14.12%)p 2.68( 37.86%)d 3.35( 47.31%)
                                                  f 0.05(  0.71%)
   182. (0.00000) RY*(17) O   5           s(  0.18%)p 5.13(  0.91%)d99.99( 98.91%)
                                                  f 0.04(  0.01%)
   183. (0.00000) RY*(18) O   5           s(  0.12%)p 9.56(  1.18%)d99.99( 98.68%)
                                                  f 0.20(  0.02%)
   184. (0.00000) RY*(19) O   5           s(  0.77%)p 2.21(  1.71%)d99.99( 97.50%)
                                                  f 0.02(  0.01%)
   185. (0.00000) RY*(20) O   5           s(  0.41%)p 9.14(  3.74%)d 6.60(  2.70%)
                                                  f99.99( 93.16%)
   186. (0.00000) RY*(21) O   5           s(  0.41%)p 6.70(  2.76%)d 2.92(  1.20%)
                                                  f99.99( 95.63%)
   187. (0.00000) RY*(22) O   5           s(  0.23%)p 1.34(  0.30%)d14.92(  3.39%)
                                                  f99.99( 96.08%)
   188. (0.00000) RY*(23) O   5           s(  0.21%)p 4.51(  0.93%)d 8.70(  1.80%)
                                                  f99.99( 97.06%)
   189. (0.00000) RY*(24) O   5           s(  0.34%)p 8.89(  3.00%)d 4.34(  1.47%)
                                                  f99.99( 95.19%)
   190. (0.00000) RY*(25) O   5           s(  0.16%)p 4.99(  0.80%)d 8.54(  1.37%)
                                                  f99.99( 97.68%)
   191. (0.00000) RY*(26) O   5           s(  0.02%)p63.72(  1.58%)d59.07(  1.46%)
                                                  f99.99( 96.94%)
   192. (0.00734) RY*( 1) C   6           s(  0.75%)p99.99( 92.05%)d 9.38(  7.06%)
                                                  f 0.18(  0.14%)
                                            0.0000  0.0082  0.0677  0.0535 -0.0032
                                            0.0144 -0.9311  0.0298  0.0009  0.0083
                                           -0.0001  0.0016  0.2266  0.0322  0.0113
                                           -0.0393 -0.1198  0.1881  0.0351  0.0104
                                            0.0018  0.0521 -0.0754 -0.0972 -0.0078
                                           -0.0253  0.0076 -0.0040  0.0125 -0.0202
                                            0.0049
   193. (0.00608) RY*( 2) C   6           s(  3.45%)p22.14( 76.31%)d 5.85( 20.17%)
                                                  f 0.02(  0.07%)
                                            0.0000  0.0055  0.1786  0.0505  0.0017
                                            0.0036 -0.2343 -0.0149  0.0001  0.1345
                                           -0.0035  0.0010 -0.8286 -0.0567 -0.0018
                                            0.0108  0.1806 -0.1496 -0.0423  0.0522
                                           -0.2112  0.1142  0.2195 -0.1905 -0.0098
                                            0.0044 -0.0027  0.0160 -0.0051  0.0143
                                           -0.0075
   194. (0.00178) RY*( 3) C   6           s( 10.99%)p 2.44( 26.86%)d 5.58( 61.28%)
                                                  f 0.08(  0.88%)
                                            0.0000 -0.0003  0.3298 -0.0328 -0.0023
                                           -0.0046  0.0372 -0.0025  0.0028  0.0527
                                            0.0459 -0.0077  0.4358 -0.2689  0.0168
                                            0.0052  0.2634 -0.0080 -0.1661  0.0284
                                           -0.4100  0.0326  0.5831 -0.0738  0.0662
                                            0.0008 -0.0383  0.0405 -0.0085  0.0320
                                           -0.0147
   195. (0.00145) RY*( 4) C   6           s(  1.70%)p17.01( 29.00%)d39.78( 67.79%)
                                                  f 0.88(  1.50%)
                                           -0.0000 -0.0029  0.1287 -0.0214  0.0041
                                           -0.0112  0.1116  0.0541  0.0010  0.4596
                                           -0.0073  0.0066 -0.0282  0.2497  0.0798
                                           -0.0061 -0.7589  0.1063 -0.0807  0.0177
                                           -0.1527  0.0069  0.2324  0.0068 -0.0196
                                            0.0430  0.0523 -0.0716 -0.0206  0.0671
                                            0.0049
   196. (0.00114) RY*( 5) C   6           s(  2.74%)p22.23( 60.87%)d13.05( 35.73%)
                                                  f 0.24(  0.66%)
                                            0.0000  0.0019  0.1623 -0.0317 -0.0047
                                            0.0100  0.0172  0.2091  0.0021  0.7406
                                            0.0648 -0.0008  0.1007 -0.0431 -0.3699
                                           -0.0192  0.3094 -0.0324 -0.0835  0.0397
                                            0.1912 -0.0056 -0.2793  0.0151  0.0085
                                           -0.0530  0.0248  0.0396  0.0144 -0.0363
                                           -0.0061
   197. (0.00091) RY*( 6) C   6           s( 72.15%)p 0.18( 13.15%)d 0.19( 13.40%)
                                                  f 0.02(  1.30%)
                                            0.0000  0.0008  0.8396 -0.1288 -0.0038
                                            0.0102  0.0825 -0.3109 -0.0013 -0.1639
                                           -0.0266  0.0055 -0.0163 -0.0051  0.0831
                                            0.0089 -0.0779  0.0305  0.0968  0.0046
                                            0.1533 -0.0730 -0.2851 -0.0227 -0.0704
                                           -0.0699  0.0243  0.0049  0.0209  0.0455
                                            0.0064
   198. (0.00037) RY*( 7) C   6           s(  0.49%)p20.61( 10.19%)d99.99( 89.23%)
                                                  f 0.19(  0.09%)
                                           -0.0000 -0.0009  0.0673 -0.0197  0.0049
                                            0.0008  0.0029  0.3034  0.0036  0.0501
                                            0.0754  0.0000 -0.0144  0.0367  0.3666
                                            0.2814  0.0819  0.0326 -0.1253 -0.7539
                                            0.1519 -0.1200  0.0143 -0.2219  0.0033
                                           -0.0084 -0.0221 -0.0058  0.0161  0.0037
                                           -0.0083
   199. (0.00032) RY*( 8) C   6           s(  1.60%)p15.84( 25.38%)d44.84( 71.87%)
                                                  f 0.71(  1.14%)
                                           -0.0000 -0.0014  0.1239 -0.0250  0.0066
                                            0.0011  0.0003  0.4742  0.0066 -0.0252
                                            0.1465  0.0006 -0.0331  0.0756  0.4932
                                            0.1871  0.1191  0.1003 -0.0189  0.5157
                                            0.2608  0.1226  0.0882  0.2431 -0.0111
                                           -0.0089 -0.0622 -0.0102  0.0501  0.0255
                                            0.0638
   200. (0.00023) RY*( 9) C   6           s( 22.34%)p 1.64( 36.70%)d 1.59( 35.53%)
                                                  f 0.24(  5.43%)
                                            0.0000 -0.0014  0.0898  0.4608 -0.0551
                                            0.0112  0.1412  0.0470 -0.0004 -0.0136
                                           -0.0488  0.0002  0.1224  0.5720  0.0797
                                           -0.0296  0.2282  0.0974  0.1108  0.0485
                                           -0.3287  0.2223 -0.1817 -0.2853 -0.0724
                                            0.0892  0.0748 -0.0816  0.0323 -0.1616
                                            0.0409
   201. (0.00017) RY*(10) C   6           s(  7.85%)p 6.13( 48.14%)d 4.54( 35.61%)
                                                  f 1.07(  8.40%)
                                            0.0000  0.0015  0.0504  0.2677 -0.0654
                                            0.0095  0.1465  0.3354 -0.0026 -0.0835
                                            0.0783  0.0003 -0.0870 -0.5715 -0.0439
                                           -0.1169 -0.2221  0.3534  0.1315  0.0017
                                           -0.2094  0.1047 -0.2631 -0.1583  0.1873
                                           -0.1595 -0.0819 -0.0479  0.0664 -0.0942
                                            0.0349
   202. (0.00014) RY*(11) C   6           s( 18.17%)p 1.62( 29.35%)d 2.74( 49.80%)
                                                  f 0.15(  2.69%)
                                            0.0000 -0.0043  0.2278  0.3581  0.0390
                                           -0.0017 -0.0042  0.3894 -0.0068 -0.2649
                                           -0.2551  0.0012 -0.0055  0.0808 -0.3656
                                           -0.2882 -0.1010 -0.1816 -0.1301 -0.1003
                                            0.3700  0.0365  0.2632  0.0600  0.0139
                                            0.1192  0.0123 -0.0149 -0.0797  0.0747
                                           -0.0144
   203. (0.00012) RY*(12) C   6           s( 42.27%)p 0.83( 35.02%)d 0.51( 21.46%)
                                                  f 0.03(  1.25%)
                                           -0.0000 -0.0026 -0.0397  0.6449  0.0721
                                           -0.0017 -0.0102 -0.4234  0.0043  0.1792
                                            0.2651  0.0068  0.0637 -0.2536  0.1851
                                            0.1732 -0.0657 -0.1801 -0.0462  0.0081
                                            0.2930  0.1431  0.0616  0.0361  0.0118
                                            0.0799 -0.0157 -0.0304 -0.0447  0.0420
                                           -0.0317
   204. (0.00009) RY*(13) C   6           s(  2.89%)p 3.88( 11.21%)d26.60( 76.89%)
                                                  f 3.12(  9.01%)
   205. (0.00006) RY*(14) C   6           s(  8.48%)p 0.44(  3.72%)d10.22( 86.64%)
                                                  f 0.14(  1.15%)
   206. (0.00002) RY*(15) C   6           s(  1.51%)p 7.56( 11.38%)d52.89( 79.62%)
                                                  f 4.98(  7.49%)
   207. (0.00000) RY*(16) C   6           s(  0.77%)p99.99( 77.74%)d27.59( 21.22%)
                                                  f 0.36(  0.28%)
   208. (0.00000) RY*(17) C   6           s(  1.88%)p 0.74(  1.40%)d51.44( 96.71%)
                                                  f 0.01(  0.02%)
   209. (0.00000) RY*(18) C   6           s(  0.07%)p32.63(  2.40%)d99.99( 97.30%)
                                                  f 2.97(  0.22%)
   210. (0.00000) RY*(19) C   6           s( 96.89%)p 0.01(  0.52%)d 0.03(  2.47%)
                                                  f 0.00(  0.11%)
   211. (0.00001) RY*(20) C   6           s(  1.09%)p 2.45(  2.68%)d 8.45(  9.24%)
                                                  f79.61( 86.99%)
   212. (0.00000) RY*(21) C   6           s(  0.70%)p 4.80(  3.36%)d 9.72(  6.80%)
                                                  f99.99( 89.15%)
   213. (0.00000) RY*(22) C   6           s(  0.01%)p99.99(  1.53%)d99.99(  4.58%)
                                                  f99.99( 93.88%)
   214. (0.00001) RY*(23) C   6           s(  0.50%)p 0.67(  0.34%)d 2.80(  1.41%)
                                                  f99.99( 97.75%)
   215. (0.00000) RY*(24) C   6           s(  0.06%)p 3.38(  0.20%)d33.42(  1.93%)
                                                  f99.99( 97.81%)
   216. (0.00001) RY*(25) C   6           s(  0.62%)p 0.34(  0.21%)d 8.41(  5.18%)
                                                  f99.99( 94.00%)
   217. (0.00000) RY*(26) C   6           s(  0.04%)p11.14(  0.46%)d22.58(  0.94%)
                                                  f99.99( 98.56%)
   218. (0.00464) RY*( 1) C   7           s(  0.71%)p99.99( 85.80%)d18.74( 13.25%)
                                                  f 0.35(  0.25%)
                                           -0.0000 -0.0005  0.0771  0.0336  0.0024
                                            0.0122 -0.4585  0.0254 -0.0045  0.1771
                                           -0.0114  0.0206 -0.7821  0.0574  0.0345
                                           -0.0366 -0.1489  0.2539  0.0109 -0.0552
                                           -0.0579 -0.0860  0.0183  0.1705  0.0251
                                           -0.0194 -0.0030 -0.0206  0.0144 -0.0268
                                            0.0103
   219. (0.00184) RY*( 2) C   7           s(  0.24%)p99.99( 88.63%)d44.65( 10.92%)
                                                  f 0.83(  0.20%)
                                           -0.0000 -0.0070 -0.0000  0.0477 -0.0111
                                           -0.0233 -0.8007  0.1628 -0.0004 -0.0388
                                            0.0114  0.0075  0.4636 -0.0393  0.0603
                                            0.0078 -0.0600 -0.0047 -0.0162  0.0119
                                           -0.2221  0.0977  0.1750 -0.1096  0.0064
                                            0.0094  0.0075 -0.0337  0.0094 -0.0220
                                            0.0120
   220. (0.00126) RY*( 3) C   7           s( 51.30%)p 0.12(  5.94%)d 0.80( 41.27%)
                                                  f 0.03(  1.50%)
                                           -0.0000  0.0011  0.7041 -0.1309  0.0082
                                            0.0020  0.1820  0.0793 -0.0012  0.0405
                                           -0.0050  0.0013 -0.0927  0.0984  0.0075
                                           -0.0184  0.0773  0.0077 -0.0921  0.0851
                                           -0.2784  0.1131  0.4346 -0.3337  0.0647
                                            0.0677 -0.0181 -0.0500  0.0004 -0.0542
                                            0.0213
   221. (0.00095) RY*( 4) C   7           s(  0.20%)p99.99( 74.05%)d99.99( 25.19%)
                                                  f 2.79(  0.56%)
                                           -0.0000 -0.0003  0.0444 -0.0045  0.0002
                                           -0.0016 -0.0708 -0.0180  0.0175 -0.7848
                                           -0.3082  0.0044 -0.1434 -0.0589 -0.3570
                                           -0.2589 -0.0278 -0.0570  0.1832  0.1233
                                           -0.0133 -0.0089  0.0514  0.0415  0.0210
                                           -0.0016  0.0465  0.0019 -0.0520 -0.0137
                                           -0.0075
   222. (0.00081) RY*( 5) C   7           s(  9.60%)p 1.13( 10.86%)d 8.16( 78.34%)
                                                  f 0.13(  1.20%)
                                            0.0000  0.0084 -0.0724  0.3011 -0.0015
                                            0.0233  0.2398  0.0974  0.0027 -0.1039
                                           -0.0236 -0.0202  0.1455  0.0903  0.1638
                                           -0.1194 -0.5998  0.5799  0.0709 -0.0383
                                           -0.0970  0.1276  0.0408 -0.1116  0.0171
                                           -0.0709 -0.0090  0.0137  0.0414 -0.0685
                                            0.0042
   223. (0.00056) RY*( 6) C   7           s(  0.16%)p99.99( 15.86%)d99.99( 81.13%)
                                                  f18.33(  2.85%)
                                            0.0000  0.0010  0.0302  0.0254 -0.0007
                                           -0.0000  0.0161  0.0031  0.0133  0.3567
                                           -0.1384  0.0019  0.1067 -0.0199 -0.6534
                                           -0.1804 -0.1856  0.0386 -0.3772  0.3037
                                           -0.1705  0.0484 -0.1870  0.1227 -0.0295
                                           -0.0388 -0.0478 -0.0144 -0.1142 -0.0144
                                            0.1020
   224. (0.00031) RY*( 7) C   7           s( 39.97%)p 0.18(  7.23%)d 1.27( 50.60%)
                                                  f 0.06(  2.21%)
                                            0.0000  0.0005  0.6316  0.0113 -0.0235
                                           -0.0301 -0.1189  0.0457  0.0011 -0.0170
                                           -0.0221 -0.0044  0.1983  0.1225  0.0356
                                           -0.0151  0.0049  0.1506  0.1801 -0.0682
                                            0.2766 -0.1021 -0.5823  0.1371 -0.1287
                                            0.0034  0.0697 -0.0026  0.0127  0.0172
                                           -0.0132
   225. (0.00013) RY*( 8) C   7           s( 60.42%)p 0.10(  6.13%)d 0.43( 25.94%)
                                                  f 0.12(  7.51%)
                                            0.0000 -0.0103  0.0384  0.7759  0.0247
                                           -0.0169 -0.0413  0.1725  0.0025  0.0040
                                           -0.0302 -0.0000 -0.1300  0.1083 -0.0512
                                            0.0233  0.2094 -0.1609 -0.1441  0.0712
                                            0.2712  0.1957  0.0353 -0.2182 -0.1412
                                            0.0256 -0.0249  0.1976 -0.0516  0.0901
                                           -0.0637
   226. (0.00008) RY*( 9) C   7           s(  2.78%)p14.05( 39.06%)d18.52( 51.46%)
                                                  f 2.41(  6.70%)
   227. (0.00005) RY*(10) C   7           s(  2.29%)p 1.86(  4.26%)d25.99( 59.41%)
                                                  f14.89( 34.04%)
   228. (0.00004) RY*(11) C   7           s( 20.63%)p 1.83( 37.80%)d 1.94( 40.00%)
                                                  f 0.08(  1.57%)
   229. (0.00003) RY*(12) C   7           s(  0.59%)p29.42( 17.29%)d40.75( 23.94%)
                                                  f99.04( 58.19%)
   230. (0.00001) RY*(13) C   7           s(  7.12%)p 6.86( 48.82%)d 4.85( 34.51%)
                                                  f 1.34(  9.56%)
   231. (0.00001) RY*(14) C   7           s(  0.46%)p30.67( 14.07%)d99.99( 82.19%)
                                                  f 7.15(  3.28%)
   232. (0.00000) RY*(15) C   7           s(  0.02%)p99.99(  2.51%)d99.99( 97.44%)
                                                  f 1.07(  0.02%)
   233. (0.00000) RY*(16) C   7           s(  0.19%)p99.99( 89.71%)d51.20(  9.84%)
                                                  f 1.35(  0.26%)
   234. (0.00001) RY*(17) C   7           s(  1.81%)p 5.95( 10.74%)d46.15( 83.40%)
                                                  f 2.24(  4.05%)
   235. (0.00000) RY*(18) C   7           s(  0.36%)p16.74(  6.10%)d99.99( 92.05%)
                                                  f 4.09(  1.49%)
   236. (0.00000) RY*(19) C   7           s(  0.37%)p50.32( 18.71%)d99.99( 77.43%)
                                                  f 9.37(  3.48%)
   237. (0.00001) RY*(20) C   7           s(  2.11%)p 3.40(  7.17%)d 3.83(  8.06%)
                                                  f39.25( 82.67%)
   238. (0.00000) RY*(21) C   7           s( 95.93%)p 0.00(  0.09%)d 0.02(  1.58%)
                                                  f 0.02(  2.40%)
   239. (0.00000) RY*(22) C   7           s(  0.08%)p17.50(  1.32%)d20.09(  1.52%)
                                                  f99.99( 97.08%)
   240. (0.00000) RY*(23) C   7           s(  2.36%)p 0.86(  2.02%)d 0.89(  2.09%)
                                                  f39.69( 93.53%)
   241. (0.00000) RY*(24) C   7           s(  0.07%)p 6.78(  0.49%)d34.94(  2.54%)
                                                  f99.99( 96.90%)
   242. (0.00000) RY*(25) C   7           s(  0.03%)p99.99(  5.58%)d99.99(  4.32%)
                                                  f99.99( 90.07%)
   243. (0.00000) RY*(26) C   7           s(  0.29%)p 0.71(  0.21%)d 3.92(  1.15%)
                                                  f99.99( 98.35%)
   244. (0.00485) RY*( 1) C   8           s(  1.68%)p48.50( 81.55%)d 9.87( 16.59%)
                                                  f 0.11(  0.18%)
                                           -0.0000  0.0068  0.1263  0.0285  0.0000
                                           -0.0150 -0.6444 -0.0525 -0.0028 -0.0817
                                           -0.0007  0.0202  0.6244  0.0172 -0.0181
                                            0.0662  0.1403 -0.3619  0.0154 -0.0007
                                           -0.0838  0.0338 -0.0176  0.0428  0.0042
                                           -0.0102  0.0042 -0.0167 -0.0041  0.0365
                                           -0.0023
   245. (0.00211) RY*( 2) C   8           s(  0.94%)p94.17( 88.13%)d11.40( 10.67%)
                                                  f 0.29(  0.27%)
                                            0.0000 -0.0043  0.0959  0.0116  0.0029
                                            0.0236 -0.6122 -0.2066 -0.0043  0.1636
                                            0.0327  0.0141 -0.6497 -0.1139 -0.0074
                                           -0.0110  0.0631  0.0068 -0.0701  0.0359
                                           -0.0831  0.0672  0.2449 -0.1578  0.0429
                                           -0.0161 -0.0153 -0.0174  0.0065 -0.0016
                                            0.0039
   246. (0.00088) RY*( 3) C   8           s( 19.44%)p 0.62( 11.97%)d 3.42( 66.48%)
                                                  f 0.11(  2.11%)
                                            0.0000 -0.0019  0.4409 -0.0023  0.0064
                                            0.0291 -0.2106  0.0670 -0.0052  0.0560
                                           -0.0440  0.0192 -0.1643  0.1939 -0.0111
                                            0.0042 -0.1517  0.1296  0.0934 -0.0969
                                            0.3520 -0.3171 -0.4452  0.4290 -0.0975
                                            0.0136  0.0511 -0.0021  0.0186 -0.0903
                                            0.0159
   247. (0.00084) RY*( 4) C   8           s( 68.32%)p 0.12(  8.53%)d 0.31( 21.13%)
                                                  f 0.03(  2.02%)
                                            0.0000 -0.0041  0.8050 -0.1872  0.0030
                                           -0.0100  0.2018 -0.0972  0.0046  0.0492
                                           -0.0301 -0.0196  0.1477  0.0974  0.0027
                                           -0.0379 -0.1137  0.1148 -0.0391  0.0577
                                           -0.1096  0.0917  0.2628 -0.2990  0.0367
                                           -0.0971 -0.0103 -0.0125  0.0024  0.0946
                                           -0.0144
   248. (0.00067) RY*( 5) C   8           s(  0.75%)p99.99( 77.72%)d27.88( 20.96%)
                                                  f 0.75(  0.56%)
                                            0.0000 -0.0006  0.0863  0.0085 -0.0001
                                           -0.0004 -0.0321 -0.0091 -0.0073 -0.8483
                                            0.1760 -0.0031 -0.1533  0.0438  0.3004
                                           -0.1620  0.0315 -0.0203 -0.2894  0.0156
                                           -0.0223 -0.0068 -0.0806 -0.0267  0.0150
                                            0.0148  0.0151  0.0044  0.0665  0.0220
                                           -0.0057
   249. (0.00020) RY*( 6) C   8           s(  3.90%)p 1.65(  6.43%)d22.66( 88.42%)
                                                  f 0.32(  1.24%)
                                            0.0000 -0.0006  0.0721  0.1839 -0.0040
                                            0.0028  0.0284 -0.0658 -0.0022 -0.1966
                                            0.1366 -0.0033 -0.0389  0.0191  0.0560
                                            0.7006  0.0926  0.1545  0.3290  0.4215
                                            0.1016  0.1909  0.0945  0.1274  0.0223
                                            0.0150  0.0020 -0.0528 -0.0701 -0.0419
                                           -0.0468
   250. (0.00016) RY*( 7) C   8           s( 26.87%)p 0.49( 13.18%)d 1.90( 51.18%)
                                                  f 0.33(  8.77%)
                                            0.0000  0.0051  0.2449  0.4545 -0.0462
                                            0.0144  0.2517 -0.2314  0.0038  0.0585
                                           -0.0237 -0.0193 -0.0996 -0.0186 -0.1428
                                           -0.1000  0.6206 -0.2312 -0.0495 -0.1127
                                           -0.0634  0.0378 -0.1377  0.0570  0.0084
                                            0.2623  0.0124 -0.0990 -0.0375 -0.0688
                                            0.0525
   251. (0.00012) RY*( 8) C   8           s( 54.67%)p 0.14(  7.74%)d 0.64( 34.91%)
                                                  f 0.05(  2.68%)
                                            0.0000 -0.0110  0.0101  0.7364  0.0651
                                           -0.0020 -0.0838 -0.1019  0.0005  0.0120
                                           -0.0048  0.0023  0.1824 -0.1629  0.0215
                                           -0.1510 -0.4103  0.2658 -0.1049 -0.0399
                                            0.2135  0.0703  0.0753 -0.1341  0.1095
                                           -0.0133 -0.0651  0.0192  0.0359 -0.0879
                                            0.0323
   252. (0.00006) RY*( 9) C   8           s(  4.68%)p 2.82( 13.22%)d16.39( 76.76%)
                                                  f 1.14(  5.33%)
   253. (0.00005) RY*(10) C   8           s(  7.06%)p 5.26( 37.14%)d 7.66( 54.10%)
                                                  f 0.24(  1.70%)
   254. (0.00003) RY*(11) C   8           s(  1.80%)p18.65( 33.64%)d35.23( 63.55%)
                                                  f 0.56(  1.01%)
   255. (0.00000) RY*(12) C   8           s( 98.39%)p 0.00(  0.32%)d 0.01(  1.24%)
                                                  f 0.00(  0.05%)
   256. (0.00001) RY*(13) C   8           s(  1.69%)p15.11( 25.53%)d42.92( 72.49%)
                                                  f 0.17(  0.29%)
   257. (0.00000) RY*(14) C   8           s(  0.03%)p99.99(  5.04%)d99.99( 94.87%)
                                                  f 2.41(  0.06%)
   258. (0.00000) RY*(15) C   8           s(  0.08%)p25.73(  2.14%)d99.99( 97.70%)
                                                  f 0.90(  0.08%)
   259. (0.00001) RY*(16) C   8           s(  2.83%)p27.16( 76.76%)d 7.22( 20.40%)
                                                  f 0.01(  0.02%)
   260. (0.00000) RY*(17) C   8           s(  1.67%)p 0.24(  0.41%)d58.56( 97.92%)
                                                  f 0.00(  0.00%)
   261. (0.00000) RY*(18) C   8           s(  0.08%)p99.99( 10.68%)d99.99( 88.99%)
                                                  f 2.84(  0.24%)
   262. (0.00000) RY*(19) C   8           s(  0.04%)p99.99( 98.17%)d42.16(  1.77%)
                                                  f 0.41(  0.02%)
   263. (0.00000) RY*(20) C   8           s(  1.13%)p 0.15(  0.17%)d 2.14(  2.42%)
                                                  f85.23( 96.29%)
   264. (0.00000) RY*(21) C   8           s(  1.91%)p 0.50(  0.95%)d 4.07(  7.77%)
                                                  f46.86( 89.37%)
   265. (0.00000) RY*(22) C   8           s(  0.28%)p 0.38(  0.11%)d 3.86(  1.09%)
                                                  f99.99( 98.53%)
   266. (0.00000) RY*(23) C   8           s(  0.51%)p 0.36(  0.18%)d 4.57(  2.32%)
                                                  f99.99( 96.99%)
   267. (0.00000) RY*(24) C   8           s(  0.01%)p 1.00(  0.24%)d 4.57(  1.09%)
                                                  f99.99( 98.67%)
   268. (0.00000) RY*(25) C   8           s(  1.13%)p 0.32(  0.36%)d 3.80(  4.31%)
                                                  f83.02( 94.19%)
   269. (0.00000) RY*(26) C   8           s(  0.15%)p 0.57(  0.09%)d 3.30(  0.49%)
                                                  f99.99( 99.27%)
   270. (0.00475) RY*( 1) C   9           s(  3.18%)p26.17( 83.19%)d 4.28( 13.62%)
                                                  f 0.00(  0.02%)
                                           -0.0000  0.0055  0.1580  0.0823  0.0041
                                           -0.0263 -0.8872 -0.0249  0.0027  0.0871
                                            0.0019 -0.0054 -0.1892 -0.0038  0.0164
                                           -0.0507 -0.0385  0.1457  0.0103  0.0340
                                           -0.0849  0.2060  0.0250 -0.2431  0.0062
                                            0.0073 -0.0039 -0.0001 -0.0035  0.0056
                                           -0.0008
   271. (0.00199) RY*( 2) C   9           s(  0.00%)p 1.00( 84.84%)d 0.17( 14.74%)
                                                  f 0.00(  0.42%)
                                            0.0000 -0.0002  0.0025 -0.0005 -0.0001
                                           -0.0049  0.1980  0.0502 -0.0039  0.1560
                                            0.0422  0.0221 -0.8497 -0.2407  0.0396
                                           -0.0374 -0.2506  0.2293  0.0359 -0.0322
                                            0.0661 -0.0631 -0.0985  0.0931 -0.0319
                                            0.0337  0.0007  0.0403 -0.0116 -0.0152
                                           -0.0073
   272. (0.00081) RY*( 3) C   9           s( 60.17%)p 0.03(  1.66%)d 0.60( 36.25%)
                                                  f 0.03(  1.91%)
                                            0.0000 -0.0052  0.7390 -0.2357  0.0082
                                           -0.0061 -0.0414 -0.1025  0.0011  0.0621
                                           -0.0023 -0.0007  0.0052 -0.0222 -0.1015
                                            0.0567  0.2110 -0.1157  0.0716 -0.0176
                                            0.2249 -0.1818 -0.4068  0.1911  0.0672
                                            0.0982 -0.0238 -0.0594 -0.0169 -0.0151
                                            0.0194
   273. (0.00068) RY*( 4) C   9           s(  0.00%)p 1.00( 20.29%)d 3.84( 77.85%)
                                                  f 0.09(  1.85%)
                                           -0.0000  0.0001 -0.0005  0.0050  0.0004
                                            0.0082 -0.0878  0.0473  0.0068 -0.0697
                                            0.0213 -0.0377  0.4102 -0.1338  0.0766
                                           -0.0985 -0.4975  0.6047  0.0711 -0.0843
                                            0.1354 -0.1556 -0.1997  0.2351  0.0055
                                            0.0386 -0.0444  0.1134 -0.0169 -0.0376
                                           -0.0217
   274. (0.00043) RY*( 5) C   9           s(  0.41%)p99.99( 73.01%)d63.68( 26.36%)
                                                  f 0.52(  0.22%)
                                            0.0000 -0.0010  0.0593  0.0249  0.0002
                                           -0.0001 -0.0495  0.0014 -0.0012 -0.8028
                                            0.2400 -0.0001 -0.1557  0.0367  0.4555
                                           -0.1151  0.1116 -0.0320  0.0341 -0.1208
                                            0.0975 -0.0592 -0.0116 -0.0210  0.0123
                                           -0.0091  0.0254 -0.0049 -0.0183 -0.0147
                                           -0.0264
   275. (0.00030) RY*( 6) C   9           s(  0.02%)p56.39(  0.86%)d99.99( 99.11%)
                                                  f 0.64(  0.01%)
                                            0.0000 -0.0001  0.0073  0.0100  0.0003
                                            0.0000 -0.0054 -0.0017  0.0006 -0.0872
                                            0.0265  0.0001 -0.0168  0.0051 -0.0635
                                           -0.1960  0.0223  0.0037  0.5267  0.7393
                                            0.1014  0.1247  0.1761  0.2594  0.0019
                                           -0.0058  0.0006 -0.0022 -0.0070 -0.0025
                                            0.0012
   276. (0.00015) RY*( 7) C   9           s( 19.95%)p 1.14( 22.66%)d 2.68( 53.39%)
                                                  f 0.20(  4.00%)
                                            0.0000  0.0105  0.4301 -0.0692 -0.0980
                                            0.0164  0.2442 -0.3837 -0.0017 -0.0349
                                            0.0551  0.0034  0.0603 -0.1079  0.1110
                                           -0.0440 -0.1937  0.1186  0.0603  0.0057
                                           -0.6057  0.1904  0.2037 -0.1406 -0.0566
                                           -0.0785  0.0126  0.0586 -0.0183  0.1580
                                           -0.0413
   277. (0.00009) RY*( 8) C   9           s( 77.92%)p 0.01(  0.50%)d 0.19( 14.60%)
                                                  f 0.09(  6.98%)
   278. (0.00006) RY*( 9) C   9           s(  0.22%)p99.99( 49.91%)d57.93( 12.50%)
                                                  f99.99( 37.38%)
   279. (0.00004) RY*(10) C   9           s(  0.08%)p 6.45(  0.52%)d99.99( 85.70%)
                                                  f99.99( 13.70%)
   280. (0.00004) RY*(11) C   9           s( 16.37%)p 0.90( 14.73%)d 4.04( 66.23%)
                                                  f 0.16(  2.67%)
   281. (0.00000) RY*(12) C   9           s(  0.27%)p99.99( 97.30%)d 6.67(  1.80%)
                                                  f 2.31(  0.62%)
   282. (0.00000) RY*(13) C   9           s( 96.84%)p 0.00(  0.13%)d 0.03(  3.03%)
                                                  f 0.00(  0.00%)
   283. (0.00000) RY*(14) C   9           s(  0.38%)p 3.64(  1.40%)d99.99( 98.18%)
                                                  f 0.10(  0.04%)
   284. (0.00001) RY*(15) C   9           s( 11.92%)p 5.86( 69.89%)d 1.45( 17.23%)
                                                  f 0.08(  0.96%)
   285. (0.00000) RY*(16) C   9           s(  0.06%)p99.99( 24.58%)d99.99( 75.31%)
                                                  f 0.63(  0.04%)
   286. (0.00000) RY*(17) C   9           s(  3.56%)p 1.25(  4.46%)d25.79( 91.93%)
                                                  f 0.01(  0.05%)
   287. (0.00000) RY*(18) C   9           s(  0.10%)p17.74(  1.73%)d99.99( 98.11%)
                                                  f 0.59(  0.06%)
   288. (0.00001) RY*(19) C   9           s(  2.90%)p 1.44(  4.18%)d32.05( 92.86%)
                                                  f 0.02(  0.06%)
   289. (0.00000) RY*(20) C   9           s(  2.18%)p12.55( 27.30%)d 2.83(  6.15%)
                                                  f29.59( 64.37%)
   290. (0.00000) RY*(21) C   9           s(  1.42%)p 6.97(  9.86%)d 6.38(  9.03%)
                                                  f56.31( 79.69%)
   291. (0.00000) RY*(22) C   9           s(  0.16%)p 6.21(  1.01%)d 7.72(  1.25%)
                                                  f99.99( 97.58%)
   292. (0.00000) RY*(23) C   9           s(  1.43%)p 3.08(  4.41%)d 0.54(  0.77%)
                                                  f65.11( 93.39%)
   293. (0.00000) RY*(24) C   9           s(  0.08%)p 9.42(  0.74%)d10.94(  0.86%)
                                                  f99.99( 98.32%)
   294. (0.00000) RY*(25) C   9           s(  0.38%)p 2.75(  1.03%)d 6.80(  2.55%)
                                                  f99.99( 96.04%)
   295. (0.00000) RY*(26) C   9           s(  0.05%)p 4.02(  0.20%)d 3.88(  0.19%)
                                                  f99.99( 99.56%)
   296. (0.00489) RY*( 1) C  10           s(  1.14%)p72.27( 82.12%)d14.60( 16.59%)
                                                  f 0.13(  0.15%)
                                           -0.0000  0.0066  0.1020  0.0301 -0.0022
                                           -0.0060 -0.2978 -0.0309  0.0051  0.1810
                                            0.0104 -0.0241 -0.8346 -0.0388  0.0222
                                           -0.0314 -0.1026  0.2200  0.0500 -0.0818
                                           -0.0108 -0.1144 -0.1190  0.2627 -0.0028
                                            0.0115 -0.0077  0.0246 -0.0124  0.0208
                                           -0.0103
   297. (0.00215) RY*( 2) C  10           s(  1.22%)p73.23( 89.34%)d 7.59(  9.26%)
                                                  f 0.15(  0.18%)
                                            0.0000 -0.0050  0.1103 -0.0001  0.0020
                                            0.0281 -0.8571 -0.2287 -0.0006 -0.0095
                                            0.0122 -0.0045  0.3243  0.0143  0.0418
                                           -0.0253 -0.2192  0.1090 -0.0340  0.0227
                                           -0.0075  0.0326  0.1332 -0.0987 -0.0248
                                            0.0303  0.0117 -0.0013 -0.0072 -0.0108
                                            0.0011
   298. (0.00091) RY*( 3) C  10           s( 58.29%)p 0.10(  5.86%)d 0.59( 34.66%)
                                                  f 0.02(  1.19%)
                                            0.0000 -0.0033  0.7591 -0.0806  0.0106
                                            0.0208 -0.0988  0.0738 -0.0011  0.0304
                                            0.0406  0.0002  0.0093 -0.2006 -0.1016
                                            0.0866  0.4149 -0.3694 -0.0423  0.0328
                                            0.0727 -0.0882 -0.0448  0.0486  0.0204
                                           -0.0838 -0.0112  0.0248  0.0359 -0.0492
                                           -0.0005
   299. (0.00079) RY*( 4) C  10           s( 27.55%)p 0.46( 12.56%)d 2.08( 57.20%)
                                                  f 0.10(  2.68%)
                                            0.0000 -0.0033  0.4964 -0.1705 -0.0050
                                           -0.0308  0.3134 -0.1104 -0.0006  0.0824
                                            0.0128  0.0146 -0.0707 -0.0459  0.0672
                                           -0.0782 -0.3570  0.3688 -0.0893  0.0775
                                           -0.1889  0.1744  0.3049 -0.3534 -0.0904
                                            0.0460  0.0273  0.0574 -0.0422  0.0964
                                           -0.0371
   300. (0.00067) RY*( 5) C  10           s(  0.56%)p99.99( 75.51%)d41.50( 23.32%)
                                                  f 1.08(  0.60%)
                                            0.0000 -0.0005  0.0747  0.0058  0.0001
                                           -0.0027 -0.0218 -0.0131 -0.0076 -0.8359
                                            0.1627  0.0001 -0.1707  0.0101  0.1427
                                           -0.1775  0.0277 -0.0142  0.3750 -0.0577
                                            0.0786 -0.0165  0.1628 -0.0585 -0.0198
                                           -0.0132 -0.0242 -0.0034 -0.0619 -0.0043
                                            0.0320
   301. (0.00020) RY*( 6) C  10           s(  0.24%)p28.86(  7.04%)d99.99( 91.96%)
                                                  f 3.10(  0.76%)
                                            0.0000 -0.0005  0.0022  0.0492  0.0032
                                           -0.0010 -0.0084 -0.0188 -0.0014 -0.2368
                                            0.1039 -0.0001 -0.0556 -0.0032  0.2571
                                            0.8477  0.0332  0.1441 -0.2734 -0.1509
                                           -0.0279  0.0728 -0.0749 -0.0622  0.0133
                                            0.0183  0.0229 -0.0183  0.0180 -0.0141
                                           -0.0752
   302. (0.00014) RY*( 7) C  10           s( 20.50%)p 0.64( 13.05%)d 2.87( 58.84%)
                                                  f 0.37(  7.61%)
                                            0.0000  0.0068  0.2816  0.3493 -0.0606
                                            0.0069  0.1669 -0.1570 -0.0043 -0.0355
                                            0.0149  0.0238  0.2456 -0.1247  0.0764
                                           -0.0328 -0.3822  0.1381  0.1753 -0.0834
                                            0.1978 -0.0439 -0.5372  0.2216  0.1994
                                            0.1446 -0.0946 -0.0515 -0.0244 -0.0526
                                            0.0217
   303. (0.00012) RY*( 8) C  10           s( 64.61%)p 0.11(  7.13%)d 0.38( 24.64%)
                                                  f 0.06(  3.61%)
                                            0.0000 -0.0098  0.0384  0.8012  0.0518
                                            0.0051  0.0164 -0.1676  0.0014  0.0712
                                           -0.0751  0.0012 -0.1362  0.1170 -0.0314
                                           -0.0617  0.2516 -0.0051 -0.0937  0.0393
                                            0.1615  0.1605  0.2179 -0.2621 -0.0940
                                            0.1324  0.0420 -0.0135 -0.0070 -0.0805
                                            0.0357
   304. (0.00007) RY*( 9) C  10           s(  1.74%)p10.28( 17.92%)d41.93( 73.12%)
                                                  f 4.14(  7.22%)
   305. (0.00005) RY*(10) C  10           s( 10.23%)p 3.58( 36.60%)d 4.94( 50.54%)
                                                  f 0.26(  2.64%)
   306. (0.00003) RY*(11) C  10           s(  3.34%)p 7.36( 24.57%)d20.33( 67.82%)
                                                  f 1.28(  4.28%)
   307. (0.00001) RY*(12) C  10           s(  5.12%)p12.84( 65.68%)d 3.25( 16.62%)
                                                  f 2.46( 12.58%)
   308. (0.00000) RY*(13) C  10           s(  0.38%)p11.50(  4.37%)d99.99( 94.83%)
                                                  f 1.10(  0.42%)
   309. (0.00000) RY*(14) C  10           s(  0.07%)p99.99( 13.06%)d99.99( 86.71%)
                                                  f 2.47(  0.17%)
   310. (0.00000) RY*(15) C  10           s(  0.22%)p 4.50(  0.97%)d99.99( 98.65%)
                                                  f 0.75(  0.16%)
   311. (0.00001) RY*(16) C  10           s(  1.51%)p20.14( 30.40%)d41.63( 62.83%)
                                                  f 3.49(  5.26%)
   312. (0.00000) RY*(17) C  10           s(  0.67%)p10.26(  6.84%)d99.99( 89.92%)
                                                  f 3.87(  2.58%)
   313. (0.00000) RY*(18) C  10           s( 97.82%)p 0.01(  0.65%)d 0.01(  1.45%)
                                                  f 0.00(  0.09%)
   314. (0.00000) RY*(19) C  10           s(  0.55%)p99.99( 96.38%)d 5.33(  2.91%)
                                                  f 0.29(  0.16%)
   315. (0.00000) RY*(20) C  10           s(  0.05%)p10.38(  0.51%)d99.99(  9.17%)
                                                  f99.99( 90.27%)
   316. (0.00000) RY*(21) C  10           s(  3.60%)p 0.15(  0.55%)d 0.88(  3.18%)
                                                  f25.71( 92.66%)
   317. (0.00000) RY*(22) C  10           s(  0.07%)p 2.54(  0.18%)d19.85(  1.38%)
                                                  f99.99( 98.38%)
   318. (0.00000) RY*(23) C  10           s(  0.02%)p99.99(  7.60%)d99.99( 15.65%)
                                                  f99.99( 76.72%)
   319. (0.00000) RY*(24) C  10           s(  0.13%)p 2.95(  0.38%)d 7.76(  0.99%)
                                                  f99.99( 98.51%)
   320. (0.00000) RY*(25) C  10           s(  0.34%)p 2.98(  1.03%)d16.63(  5.73%)
                                                  f99.99( 92.90%)
   321. (0.00000) RY*(26) C  10           s(  0.10%)p 1.36(  0.13%)d16.69(  1.61%)
                                                  f99.99( 98.16%)
   322. (0.00434) RY*( 1) C  11           s(  1.42%)p58.77( 83.70%)d10.26( 14.62%)
                                                  f 0.18(  0.26%)
                                           -0.0000  0.0008  0.1088  0.0489  0.0014
                                            0.0183  0.7137  0.0434  0.0014  0.0636
                                            0.0050 -0.0114 -0.5647 -0.0470 -0.0084
                                            0.0602  0.0681 -0.3226 -0.0114  0.0186
                                           -0.1274  0.0645  0.1046 -0.0440 -0.0275
                                            0.0156  0.0100  0.0125  0.0023 -0.0362
                                            0.0042
   323. (0.00197) RY*( 2) C  11           s(  0.38%)p99.99( 83.26%)d42.75( 16.14%)
                                                  f 0.59(  0.22%)
                                            0.0000 -0.0081 -0.0150  0.0581 -0.0105
                                           -0.0138  0.5636  0.1096  0.0035 -0.1659
                                           -0.0085 -0.0137  0.6820  0.0988  0.0537
                                           -0.0174 -0.2020  0.1547  0.0067  0.0054
                                           -0.2170  0.0680  0.1924 -0.0683 -0.0179
                                            0.0134 -0.0021  0.0237  0.0011 -0.0339
                                            0.0033
   324. (0.00111) RY*( 3) C  11           s( 59.42%)p 0.16(  9.24%)d 0.49( 29.27%)
                                                  f 0.03(  2.07%)
                                            0.0000  0.0031  0.7581 -0.1395  0.0045
                                           -0.0008 -0.1688  0.1524  0.0028  0.1502
                                           -0.0608  0.0002 -0.0927 -0.0766  0.0774
                                           -0.1029 -0.3271  0.1752 -0.0675  0.0292
                                           -0.1844  0.0741  0.1599 -0.2606  0.0727
                                            0.0823 -0.0130 -0.0607 -0.0071 -0.0670
                                            0.0157
   325. (0.00099) RY*( 4) C  11           s(  3.08%)p25.94( 79.88%)d 5.43( 16.73%)
                                                  f 0.10(  0.31%)
                                            0.0000 -0.0010  0.1722 -0.0336  0.0013
                                           -0.0046 -0.0432  0.0342 -0.0146 -0.8270
                                            0.2780 -0.0074 -0.1815  0.0369  0.1217
                                            0.1534 -0.0348  0.0972  0.2802  0.1452
                                            0.1031  0.0258  0.0408  0.0758  0.0070
                                            0.0117 -0.0365 -0.0103  0.0166  0.0102
                                            0.0334
   326. (0.00074) RY*( 5) C  11           s(  8.55%)p 1.26( 10.76%)d 9.21( 78.76%)
                                                  f 0.22(  1.92%)
                                           -0.0000  0.0076 -0.1785  0.2315 -0.0039
                                            0.0171 -0.2919  0.0823 -0.0124 -0.0266
                                            0.1116  0.0296  0.0324 -0.0099  0.1540
                                            0.0717  0.3242 -0.2223 -0.0690  0.2188
                                           -0.2932  0.3051  0.4841 -0.3719 -0.1063
                                           -0.0015  0.0293  0.0035  0.0004 -0.0816
                                            0.0190
   327. (0.00053) RY*( 6) C  11           s(  0.27%)p48.39( 13.21%)d99.99( 84.04%)
                                                  f 9.06(  2.48%)
                                           -0.0000  0.0021 -0.0222  0.0472  0.0028
                                            0.0043 -0.0895 -0.0395  0.0147 -0.2704
                                           -0.2152  0.0107 -0.0285 -0.0442 -0.7711
                                           -0.0456 -0.0593 -0.0943  0.0838 -0.3653
                                           -0.1550 -0.0273  0.1325 -0.2202 -0.0106
                                            0.0425  0.0425  0.0295  0.1415  0.0061
                                            0.0103
   328. (0.00035) RY*( 7) C  11           s( 25.78%)p 0.47( 12.00%)d 2.38( 61.35%)
                                                  f 0.03(  0.88%)
                                            0.0000  0.0020  0.5006  0.0817 -0.0216
                                           -0.0263  0.0227  0.0722  0.0017 -0.0469
                                           -0.0203 -0.0034  0.3319  0.0276 -0.0946
                                            0.0419  0.5788 -0.3570  0.0280  0.0092
                                            0.0358  0.0360 -0.3689  0.0283  0.0540
                                           -0.0477 -0.0303  0.0452  0.0072 -0.0220
                                           -0.0102
   329. (0.00013) RY*( 8) C  11           s( 55.43%)p 0.15(  8.18%)d 0.53( 29.13%)
                                                  f 0.13(  7.25%)
                                            0.0000 -0.0089  0.0723  0.7409  0.0052
                                           -0.0172  0.0669  0.2338  0.0025  0.0893
                                            0.0665 -0.0057 -0.0849 -0.0525 -0.1090
                                            0.0020 -0.0266  0.3443  0.0172  0.0007
                                            0.3383  0.1317 -0.0852 -0.1445 -0.0162
                                           -0.2015  0.0271 -0.0343  0.0297  0.1698
                                           -0.0044
   330. (0.00012) RY*( 9) C  11           s(  5.97%)p 5.82( 34.79%)d 8.37( 49.98%)
                                                  f 1.55(  9.27%)
                                            0.0000 -0.0118  0.1842  0.1088  0.1176
                                           -0.0093  0.0808 -0.5488 -0.0020 -0.0276
                                            0.0555  0.0097  0.1281 -0.1405 -0.0543
                                            0.0471  0.0461 -0.0771 -0.2728  0.0864
                                            0.4489 -0.2394  0.3809 -0.0261 -0.0190
                                            0.1621  0.0732 -0.2259 -0.0051 -0.0693
                                            0.0689
   331. (0.00006) RY*(10) C  11           s(  5.18%)p 3.09( 16.01%)d 9.42( 48.78%)
                                                  f 5.80( 30.04%)
   332. (0.00004) RY*(11) C  11           s(  6.55%)p 5.43( 35.55%)d 8.27( 54.14%)
                                                  f 0.57(  3.76%)
   333. (0.00004) RY*(12) C  11           s( 14.93%)p 0.51(  7.55%)d 4.28( 63.92%)
                                                  f 0.91( 13.60%)
   334. (0.00001) RY*(13) C  11           s(  1.46%)p35.48( 51.83%)d 0.56(  0.82%)
                                                  f31.42( 45.89%)
   335. (0.00000) RY*(14) C  11           s(  0.21%)p69.34( 14.31%)d99.99( 85.34%)
                                                  f 0.71(  0.15%)
   336. (0.00001) RY*(15) C  11           s(  0.77%)p52.32( 40.44%)d69.77( 53.92%)
                                                  f 6.30(  4.87%)
   337. (0.00000) RY*(16) C  11           s(  0.01%)p99.99( 37.53%)d99.99( 61.62%)
                                                  f65.67(  0.84%)
   338. (0.00001) RY*(17) C  11           s(  0.97%)p15.95( 15.53%)d83.52( 81.30%)
                                                  f 2.26(  2.20%)
   339. (0.00000) RY*(18) C  11           s(  0.13%)p54.52(  7.11%)d99.99( 92.53%)
                                                  f 1.72(  0.22%)
   340. (0.00000) RY*(19) C  11           s( 97.17%)p 0.00(  0.22%)d 0.02(  2.36%)
                                                  f 0.00(  0.24%)
   341. (0.00001) RY*(20) C  11           s(  4.31%)p 6.15( 26.50%)d10.11( 43.59%)
                                                  f 5.94( 25.59%)
   342. (0.00001) RY*(21) C  11           s(  3.69%)p 0.35(  1.29%)d 2.35(  8.67%)
                                                  f23.37( 86.34%)
   343. (0.00000) RY*(22) C  11           s(  0.16%)p18.64(  2.99%)d17.36(  2.79%)
                                                  f99.99( 94.06%)
   344. (0.00000) RY*(23) C  11           s(  2.88%)p 2.00(  5.77%)d 2.86(  8.24%)
                                                  f28.83( 83.11%)
   345. (0.00000) RY*(24) C  11           s(  0.16%)p 7.73(  1.26%)d28.44(  4.63%)
                                                  f99.99( 93.94%)
   346. (0.00000) RY*(25) C  11           s(  0.89%)p 0.67(  0.59%)d 5.79(  5.13%)
                                                  f99.99( 93.39%)
   347. (0.00000) RY*(26) C  11           s(  0.27%)p 3.55(  0.96%)d 6.45(  1.75%)
                                                  f99.99( 97.02%)
   348. (0.00138) RY*( 1) C  12           s( 16.61%)p 4.29( 71.24%)d 0.68( 11.37%)
                                                  f 0.05(  0.78%)
                                           -0.0000  0.0045  0.4055  0.0397 -0.0049
                                           -0.0032 -0.1121  0.1203  0.0070  0.3520
                                           -0.0368 -0.0079 -0.7463 -0.0550  0.1233
                                            0.0756  0.0639 -0.0625 -0.1464  0.0319
                                           -0.1095 -0.0087  0.2202  0.0426 -0.0523
                                            0.0391  0.0288 -0.0058 -0.0422 -0.0100
                                            0.0288
   349. (0.00079) RY*( 2) C  12           s( 18.18%)p 2.82( 51.32%)d 1.47( 26.81%)
                                                  f 0.20(  3.69%)
                                           -0.0000  0.0067  0.4167 -0.0894  0.0096
                                            0.0206  0.5624 -0.0718  0.0047 -0.4311
                                            0.0204 -0.0077  0.0407  0.0566 -0.0588
                                            0.0061  0.2313 -0.1228 -0.2390  0.1302
                                           -0.2938  0.1648  0.0290 -0.0872 -0.0443
                                           -0.0962  0.0926  0.1081 -0.0463 -0.0458
                                            0.0347
   350. (0.00056) RY*( 3) C  12           s(  0.19%)p99.99( 56.63%)d99.99( 40.74%)
                                                  f12.99(  2.45%)
                                           -0.0000 -0.0010  0.0420 -0.0071 -0.0084
                                            0.0032  0.3683 -0.0213  0.0210  0.6102
                                           -0.0362  0.0034  0.2148 -0.0998 -0.0081
                                            0.1211 -0.2614  0.0349  0.0050 -0.2342
                                           -0.3456  0.3007 -0.2362  0.0507  0.0360
                                            0.0984 -0.0590  0.0362  0.0448 -0.0813
                                            0.0084
   351. (0.00027) RY*( 4) C  12           s(  9.39%)p 1.86( 17.49%)d 7.17( 67.39%)
                                                  f 0.61(  5.73%)
                                            0.0000  0.0037 -0.1626  0.2592  0.0161
                                           -0.0174  0.3990 -0.0206  0.0003  0.0624
                                           -0.0975  0.0176  0.0355 -0.0021  0.2366
                                           -0.1503 -0.2737  0.0621 -0.1656 -0.0705
                                            0.2836 -0.0817  0.5205 -0.3551 -0.1905
                                            0.1354 -0.0096  0.0264 -0.0420 -0.0029
                                           -0.0113
   352. (0.00017) RY*( 5) C  12           s(  1.53%)p28.95( 44.35%)d30.67( 46.97%)
                                                  f 4.67(  7.15%)
                                           -0.0000 -0.0019 -0.0039  0.1169  0.0404
                                            0.0251 -0.4146 -0.1119  0.0017  0.2793
                                            0.0449 -0.0303  0.3966  0.1421  0.1192
                                            0.0346  0.3840 -0.0214 -0.4263  0.0278
                                           -0.2168  0.0381  0.1863 -0.2017 -0.1224
                                           -0.0936  0.1274  0.1518 -0.0675 -0.0616
                                           -0.0099
   353. (0.00009) RY*( 6) C  12           s(  8.66%)p 1.53( 13.24%)d 8.17( 70.73%)
                                                  f 0.85(  7.37%)
   354. (0.00006) RY*( 7) C  12           s( 32.22%)p 1.19( 38.20%)d 0.87( 27.87%)
                                                  f 0.05(  1.72%)
   355. (0.00002) RY*( 8) C  12           s( 17.20%)p 0.16(  2.79%)d 4.15( 71.38%)
                                                  f 0.50(  8.62%)
   356. (0.00002) RY*( 9) C  12           s( 26.67%)p 0.41( 10.89%)d 1.96( 52.40%)
                                                  f 0.38( 10.04%)
   357. (0.00002) RY*(10) C  12           s( 24.63%)p 0.70( 17.19%)d 2.05( 50.51%)
                                                  f 0.31(  7.67%)
   358. (0.00002) RY*(11) C  12           s( 13.56%)p 3.67( 49.73%)d 2.23( 30.27%)
                                                  f 0.48(  6.44%)
   359. (0.00002) RY*(12) C  12           s(  0.32%)p99.99( 78.69%)d20.25(  6.52%)
                                                  f44.97( 14.47%)
   360. (0.00000) RY*(13) C  12           s(  3.36%)p 3.52( 11.84%)d24.96( 83.92%)
                                                  f 0.26(  0.88%)
   361. (0.00000) RY*(14) C  12           s( 98.65%)p 0.01(  0.96%)d 0.00(  0.28%)
                                                  f 0.00(  0.12%)
   362. (0.00000) RY*(15) C  12           s(  2.29%)p 2.90(  6.63%)d39.68( 90.77%)
                                                  f 0.14(  0.31%)
   363. (0.00000) RY*(16) C  12           s(  4.05%)p 1.18(  4.77%)d22.15( 89.65%)
                                                  f 0.38(  1.54%)
   364. (0.00000) RY*(17) C  12           s(  3.79%)p 0.98(  3.71%)d24.41( 92.40%)
                                                  f 0.03(  0.11%)
   365. (0.00000) RY*(18) C  12           s(  0.08%)p99.99( 98.13%)d21.00(  1.73%)
                                                  f 0.70(  0.06%)
   366. (0.00000) RY*(19) C  12           s(  0.98%)p 3.77(  3.69%)d97.05( 95.12%)
                                                  f 0.21(  0.21%)
   367. (0.00000) RY*(20) C  12           s(  6.10%)p 0.19(  1.17%)d 1.10(  6.71%)
                                                  f14.10( 86.02%)
   368. (0.00000) RY*(21) C  12           s(  3.05%)p 2.01(  6.12%)d 3.09(  9.41%)
                                                  f26.71( 81.42%)
   369. (0.00000) RY*(22) C  12           s(  4.67%)p 0.68(  3.20%)d 0.89(  4.17%)
                                                  f18.84( 87.96%)
   370. (0.00000) RY*(23) C  12           s(  0.37%)p11.85(  4.35%)d18.73(  6.89%)
                                                  f99.99( 88.39%)
   371. (0.00000) RY*(24) C  12           s(  3.32%)p 0.53(  1.74%)d 3.18( 10.54%)
                                                  f25.44( 84.40%)
   372. (0.00000) RY*(25) C  12           s(  0.14%)p 6.56(  0.91%)d13.51(  1.87%)
                                                  f99.99( 97.09%)
   373. (0.00000) RY*(26) C  12           s(  0.06%)p31.23(  1.75%)d51.12(  2.86%)
                                                  f99.99( 95.33%)
   374. (0.00112) RY*( 1) H  13           s( 99.81%)p 0.00(  0.19%)
                                           -0.0028  0.9990 -0.0008 -0.0004 -0.0315
                                           -0.0307
   375. (0.00014) RY*( 2) H  13           s(  6.17%)p15.22( 93.83%)
                                           -0.0028  0.0175  0.2477 -0.8798  0.2586
                                            0.3122
   376. (0.00012) RY*( 3) H  13           s( 92.53%)p 0.08(  7.47%)
                                           -0.0017  0.0001  0.9619  0.2656 -0.0559
                                            0.0317
   377. (0.00009) RY*( 4) H  13           s(  0.27%)p99.99( 99.73%)
   378. (0.00002) RY*( 5) H  13           s(  1.28%)p76.97( 98.72%)
   379. (0.00072) RY*( 1) H  14           s( 99.16%)p 0.01(  0.84%)
                                           -0.0026  0.9958 -0.0019  0.0172 -0.0861
                                            0.0261
   380. (0.00021) RY*( 2) H  14           s( 26.50%)p 2.77( 73.50%)
                                           -0.0018  0.0027  0.5147  0.8305  0.1363
                                           -0.1637
   381. (0.00012) RY*( 3) H  14           s(  2.01%)p48.81( 97.99%)
                                           -0.0031 -0.0744  0.1206  0.0235 -0.9460
                                           -0.2907
   382. (0.00011) RY*( 4) H  14           s( 65.11%)p 0.54( 34.89%)
                                           -0.0060  0.0268  0.8064 -0.5531  0.1352
                                           -0.1571
   383. (0.00002) RY*( 5) H  14           s(  7.28%)p12.73( 92.72%)
   384. (0.00039) RY*( 1) H  15           s( 94.53%)p 0.06(  5.47%)
                                            0.0012  0.9723 -0.0029  0.1673  0.0476
                                           -0.1563
   385. (0.00017) RY*( 2) H  15           s( 95.91%)p 0.04(  4.09%)
                                           -0.0042 -0.0008  0.9793  0.1491 -0.0775
                                            0.1127
   386. (0.00012) RY*( 3) H  15           s(  5.56%)p17.00( 94.44%)
                                           -0.0044  0.2254  0.0689 -0.8469 -0.0763
                                            0.4705
   387. (0.00009) RY*( 4) H  15           s(  0.29%)p99.99( 99.71%)
   388. (0.00002) RY*( 5) H  15           s(  3.77%)p25.51( 96.23%)
   389. (0.00029) RY*( 1) H  16           s( 98.58%)p 0.01(  1.42%)
                                           -0.0016  0.9929  0.0036 -0.1185  0.0093
                                            0.0098
   390. (0.00019) RY*( 2) H  16           s( 99.89%)p 0.00(  0.11%)
                                           -0.0018 -0.0071  0.9994 -0.0280  0.0019
                                            0.0182
   391. (0.00010) RY*( 3) H  16           s(  0.01%)p 1.00( 99.99%)
   392. (0.00007) RY*( 4) H  16           s(  0.69%)p99.99( 99.31%)
   393. (0.00002) RY*( 5) H  16           s(  0.88%)p99.99( 99.12%)
   394. (0.00024) RY*( 1) H  17           s( 99.15%)p 0.01(  0.85%)
                                           -0.0020  0.9956 -0.0123 -0.0880  0.0166
                                            0.0227
   395. (0.00017) RY*( 2) H  17           s( 99.41%)p 0.01(  0.59%)
                                            0.0008  0.0194  0.9969  0.0725 -0.0192
                                           -0.0151
   396. (0.00009) RY*( 3) H  17           s(  0.02%)p99.99( 99.98%)
   397. (0.00008) RY*( 4) H  17           s(  0.25%)p99.99( 99.75%)
   398. (0.00002) RY*( 5) H  17           s(  1.21%)p81.35( 98.79%)
   399. (0.00030) RY*( 1) H  18           s( 98.84%)p 0.01(  1.16%)
                                           -0.0015  0.9942  0.0011 -0.0886  0.0248
                                           -0.0558
   400. (0.00019) RY*( 2) H  18           s( 99.95%)p 0.00(  0.05%)
                                           -0.0015 -0.0034  0.9998 -0.0161  0.0063
                                           -0.0134
   401. (0.00009) RY*( 3) H  18           s(  0.01%)p 1.00( 99.99%)
   402. (0.00007) RY*( 4) H  18           s(  0.46%)p99.99( 99.54%)
   403. (0.00002) RY*( 5) H  18           s(  0.79%)p99.99( 99.21%)
   404. (0.00057) RY*( 1) H  19           s( 90.66%)p 0.10(  9.34%)
                                            0.0004  0.9522  0.0054  0.1767 -0.0577
                                            0.2425
   405. (0.00014) RY*( 2) H  19           s( 89.67%)p 0.12( 10.33%)
                                           -0.0026 -0.0771  0.9438  0.2516 -0.1929
                                            0.0525
   406. (0.00010) RY*( 3) H  19           s(  4.62%)p20.62( 95.38%)
                                           -0.0016  0.0515  0.2088 -0.0296  0.9750
                                            0.0466
   407. (0.00011) RY*( 4) H  19           s( 12.61%)p 6.93( 87.39%)
                                           -0.0051  0.2908  0.2039 -0.5485 -0.0395
                                           -0.7559
   408. (0.00002) RY*( 5) H  19           s(  2.48%)p39.36( 97.52%)
   409. (0.00022) RY*( 1) H  20           s( 92.83%)p 0.08(  7.17%)
                                           -0.0016  0.9630 -0.0311  0.2648 -0.0397
                                           -0.0015
   410. (0.00012) RY*( 2) H  20           s( 47.27%)p 1.12( 52.73%)
                                           -0.0011  0.1950  0.6593 -0.6217  0.0814
                                           -0.3663
   411. (0.00008) RY*( 3) H  20           s( 43.10%)p 1.32( 56.90%)
   412. (0.00006) RY*( 4) H  20           s( 14.11%)p 6.09( 85.89%)
   413. (0.00001) RY*( 5) H  20           s(  2.72%)p35.77( 97.28%)
   414. (0.00025) RY*( 1) H  21           s( 82.80%)p 0.21( 17.20%)
                                           -0.0025  0.9095 -0.0289  0.2992 -0.2619
                                           -0.1180
   415. (0.00011) RY*( 2) H  21           s( 29.43%)p 2.40( 70.57%)
                                           -0.0005  0.2867  0.4606 -0.3680  0.6761
                                           -0.3364
   416. (0.00007) RY*( 3) H  21           s( 21.55%)p 3.64( 78.45%)
   417. (0.00004) RY*( 4) H  21           s( 64.18%)p 0.56( 35.82%)
   418. (0.00001) RY*( 5) H  21           s(  2.07%)p47.40( 97.93%)
   419. (0.00039) RY*( 1) H  22           s( 94.44%)p 0.06(  5.56%)
                                           -0.0028  0.9718 -0.0070  0.1262 -0.0596
                                           -0.1900
   420. (0.00012) RY*( 2) H  22           s(  0.24%)p99.99( 99.76%)
                                            0.0015  0.0434 -0.0235 -0.6023 -0.7935
                                            0.0715
   421. (0.00009) RY*( 3) H  22           s( 74.71%)p 0.34( 25.29%)
   422. (0.00007) RY*( 4) H  22           s( 29.98%)p 2.34( 70.02%)
   423. (0.00001) RY*( 5) H  22           s(  0.66%)p99.99( 99.34%)
   424. (0.01679) BD*( 1) C   1 - C   2  
                ( 51.49%)   0.7176* C   1 s( 33.47%)p 1.98( 66.34%)d 0.01(  0.17%)
                                                  f 0.00(  0.02%)
                                            0.0000  0.5785  0.0083  0.0011  0.0003
                                           -0.6279  0.0057  0.0066 -0.0451 -0.0011
                                           -0.0011  0.5167 -0.0016 -0.0011  0.0057
                                           -0.0023 -0.0364 -0.0039 -0.0035 -0.0000
                                            0.0156  0.0031  0.0063  0.0017 -0.0036
                                           -0.0041 -0.0012  0.0120  0.0007 -0.0066
                                           -0.0009
                ( 48.51%)  -0.6965* C   2 s( 30.91%)p 2.23( 68.98%)d 0.00(  0.11%)
                                                  f 0.00(  0.00%)
                                            0.0001  0.5555  0.0216  0.0003  0.0003
                                            0.6699 -0.0181  0.0051  0.0726 -0.0079
                                            0.0032 -0.4851  0.0040 -0.0031 -0.0025
                                            0.0030 -0.0296 -0.0056  0.0037 -0.0029
                                            0.0110  0.0062  0.0018  0.0010  0.0047
                                            0.0037 -0.0014  0.0008  0.0009  0.0026
                                            0.0014
   425. (0.01834) BD*( 1) C   1 - C   6  
                ( 51.83%)   0.7199* C   1 s( 37.36%)p 1.67( 62.37%)d 0.01(  0.26%)
                                                  f 0.00(  0.02%)
                                            0.0000  0.6112  0.0064  0.0021 -0.0005
                                            0.7500 -0.0098 -0.0078 -0.1159 -0.0008
                                            0.0020  0.2183  0.0029 -0.0007 -0.0114
                                           -0.0008  0.0280  0.0002 -0.0033 -0.0006
                                            0.0335  0.0050 -0.0218 -0.0002 -0.0046
                                           -0.0044  0.0003  0.0060 -0.0023  0.0102
                                           -0.0040
                ( 48.17%)  -0.6940* C   6 s( 34.25%)p 1.92( 65.70%)d 0.00(  0.05%)
                                                  f 0.00(  0.00%)
                                           -0.0000  0.5852  0.0075  0.0024  0.0005
                                           -0.7868 -0.0029  0.0007  0.0803 -0.0005
                                           -0.0006 -0.1776  0.0011  0.0006 -0.0011
                                           -0.0032  0.0044  0.0064  0.0021 -0.0004
                                            0.0064  0.0126 -0.0111 -0.0076  0.0006
                                            0.0017  0.0002 -0.0017  0.0008 -0.0043
                                            0.0012
   426. (0.13487) BD*( 2) C   1 - C   6  
                ( 64.99%)   0.8062* C   1 s(  0.00%)p 1.00( 99.84%)d 0.00(  0.12%)
                                                  f 0.00(  0.03%)
                                           -0.0001  0.0015  0.0065 -0.0009  0.0003
                                            0.0924  0.0027  0.0008  0.9755 -0.0051
                                            0.0091  0.1956 -0.0040  0.0011  0.0274
                                            0.0066  0.0090 -0.0001  0.0125  0.0014
                                            0.0111 -0.0002  0.0053 -0.0006  0.0020
                                            0.0013  0.0034  0.0058  0.0020  0.0047
                                            0.0162
                ( 35.01%)  -0.5917* C   6 s(  0.01%)p 1.00( 99.96%)d 0.00(  0.01%)
                                                  f 0.00(  0.02%)
                                           -0.0000  0.0077 -0.0007 -0.0004  0.0001
                                            0.0637  0.0020  0.0011  0.9803 -0.0074
                                            0.0014  0.1860 -0.0012  0.0011 -0.0092
                                           -0.0049 -0.0023 -0.0015 -0.0019 -0.0019
                                           -0.0025 -0.0014 -0.0006 -0.0005  0.0031
                                            0.0005  0.0058  0.0045 -0.0002  0.0025
                                            0.0093
   427. (0.01483) BD*( 1) C   1 - H  13  
                ( 37.05%)   0.6087* C   1 s( 29.10%)p 2.43( 70.78%)d 0.00(  0.10%)
                                                  f 0.00(  0.02%)
                                           -0.0003  0.5393 -0.0117 -0.0030  0.0004
                                           -0.1773 -0.0030  0.0005  0.1769  0.0022
                                           -0.0000 -0.8030 -0.0174 -0.0054  0.0027
                                           -0.0023  0.0095  0.0030 -0.0053 -0.0038
                                           -0.0097 -0.0025  0.0262  0.0067 -0.0048
                                           -0.0032  0.0068 -0.0104  0.0033 -0.0002
                                            0.0025
                ( 62.95%)  -0.7934* H  13 s( 99.95%)p 0.00(  0.05%)
                                            0.9997  0.0033 -0.0002  0.0034 -0.0048
                                            0.0222
   428. (0.02627) BD*( 1) C   2 -Br   3  
                ( 50.72%)   0.7122* C   2 s( 13.91%)p 6.17( 85.77%)d 0.02(  0.32%)
                                                  f 0.00(  0.01%)
                                            0.0003 -0.3719  0.0233  0.0155 -0.0004
                                            0.3577 -0.0041 -0.0144  0.8305 -0.0045
                                           -0.0380  0.1941  0.0215 -0.0129 -0.0256
                                            0.0027 -0.0023 -0.0004 -0.0372  0.0041
                                            0.0268 -0.0012  0.0199 -0.0014 -0.0048
                                           -0.0016 -0.0024 -0.0034  0.0020 -0.0038
                                           -0.0036
                ( 49.28%)  -0.7020*Br   3 s(  9.27%)p 9.76( 90.46%)d 0.03(  0.27%)
                                                  f 0.00(  0.01%)
                                            0.0000  0.0000 -0.0003 -0.3036 -0.0221
                                           -0.0006 -0.0000  0.0004 -0.3271  0.0100
                                           -0.0012 -0.0000  0.0007 -0.8576  0.0298
                                           -0.0042  0.0000  0.0001 -0.2470  0.0108
                                           -0.0025 -0.0001 -0.0275 -0.0007 -0.0015
                                           -0.0002 -0.0051  0.0016 -0.0010 -0.0003
                                           -0.0202  0.0012 -0.0018  0.0003  0.0314
                                           -0.0000  0.0021  0.0000  0.0216  0.0003
                                            0.0007  0.0027  0.0015  0.0035  0.0036
                                           -0.0016  0.0050  0.0021
   429. (0.09892) BD*( 1) C   2 - C   4  
                ( 45.22%)   0.6725* C   2 s( 27.64%)p 2.61( 72.15%)d 0.01(  0.20%)
                                                  f 0.00(  0.01%)
                                           -0.0001 -0.5257  0.0026 -0.0055  0.0001
                                            0.6250  0.0075  0.0057 -0.5460  0.0002
                                           -0.0027  0.1805  0.0095 -0.0014  0.0295
                                            0.0066 -0.0224 -0.0004  0.0143  0.0016
                                           -0.0041  0.0008  0.0192  0.0017 -0.0055
                                           -0.0048  0.0022  0.0012 -0.0007 -0.0043
                                           -0.0050
                ( 54.78%)  -0.7401* C   4 s( 30.20%)p 2.31( 69.74%)d 0.00(  0.06%)
                                                  f 0.00(  0.01%)
                                           -0.0002 -0.5491  0.0199  0.0049 -0.0001
                                           -0.6334  0.0083  0.0037  0.5241 -0.0019
                                           -0.0060 -0.1461 -0.0063  0.0053  0.0172
                                           -0.0004 -0.0088 -0.0032  0.0046  0.0007
                                           -0.0028 -0.0008  0.0123  0.0010  0.0022
                                            0.0012 -0.0008  0.0004  0.0045  0.0024
                                            0.0044
   430. (0.02042) BD*( 1) C   2 - H  14  
                ( 36.07%)   0.6006* C   2 s( 27.56%)p 2.62( 72.33%)d 0.00(  0.11%)
                                                  f 0.00(  0.00%)
                                            0.0002 -0.5250  0.0006 -0.0038  0.0002
                                           -0.1715 -0.0055 -0.0009  0.0340  0.0037
                                            0.0060 -0.8318 -0.0074 -0.0254  0.0016
                                           -0.0006 -0.0172 -0.0025  0.0028  0.0014
                                            0.0009  0.0002 -0.0252 -0.0112 -0.0041
                                           -0.0015  0.0003  0.0005  0.0014 -0.0039
                                           -0.0016
                ( 63.93%)  -0.7996* H  14 s( 99.94%)p 0.00(  0.06%)
                                           -0.9997 -0.0036  0.0000  0.0031 -0.0037
                                            0.0238
   431. (0.01370) BD*( 1) C   4 - O   5  
                ( 65.05%)   0.8065* C   4 s( 32.87%)p 2.04( 67.05%)d 0.00(  0.06%)
                                                  f 0.00(  0.01%)
                                            0.0000 -0.5712 -0.0499  0.0018 -0.0007
                                            0.0501  0.0117  0.0022 -0.3273 -0.0257
                                           -0.0015  0.7474  0.0397 -0.0008 -0.0039
                                           -0.0064 -0.0029 -0.0014  0.0115 -0.0104
                                            0.0048  0.0003 -0.0155  0.0086  0.0043
                                            0.0018 -0.0060 -0.0034  0.0007  0.0013
                                            0.0011
                ( 34.95%)  -0.5912* O   5 s( 42.11%)p 1.36( 57.24%)d 0.02(  0.63%)
                                                  f 0.00(  0.01%)
                                           -0.0000 -0.6489 -0.0066  0.0002 -0.0004
                                           -0.0146  0.0004  0.0014  0.3533 -0.0092
                                           -0.0044 -0.6684  0.0194  0.0082 -0.0006
                                            0.0004 -0.0054  0.0001  0.0544  0.0009
                                            0.0150  0.0000 -0.0558 -0.0008 -0.0056
                                           -0.0016  0.0096  0.0045 -0.0002 -0.0005
                                           -0.0012
   432. (0.09532) BD*( 2) C   4 - O   5  
                ( 67.55%)   0.8219* C   4 s(  0.03%)p99.99( 99.83%)d 4.18(  0.13%)
                                                  f 0.23(  0.01%)
                                           -0.0000  0.0175  0.0022  0.0000  0.0001
                                            0.5507 -0.0089  0.0069  0.7717 -0.0141
                                            0.0113  0.3146 -0.0071  0.0062  0.0082
                                            0.0033 -0.0173 -0.0051 -0.0198 -0.0050
                                           -0.0092 -0.0012 -0.0189 -0.0062  0.0005
                                           -0.0020  0.0019 -0.0012 -0.0037  0.0069
                                           -0.0008
                ( 32.45%)  -0.5696* O   5 s(  0.05%)p99.99( 99.52%)d 8.46(  0.41%)
                                                  f 0.38(  0.02%)
                                            0.0000  0.0221  0.0000  0.0002 -0.0000
                                            0.5446 -0.0055  0.0011  0.7523 -0.0071
                                            0.0017  0.3642 -0.0042  0.0011 -0.0120
                                           -0.0002  0.0334 -0.0002  0.0321  0.0001
                                            0.0244 -0.0003  0.0353  0.0001  0.0087
                                            0.0064  0.0028  0.0063 -0.0033 -0.0022
                                           -0.0020
   433. (0.05214) BD*( 1) C   4 - C  12  
                ( 50.28%)   0.7091* C   4 s( 37.06%)p 1.70( 62.89%)d 0.00(  0.05%)
                                                  f 0.00(  0.01%)
                                           -0.0001  0.6085 -0.0170  0.0051 -0.0003
                                           -0.5400 -0.0009 -0.0000  0.1421  0.0053
                                            0.0041  0.5630 -0.0062 -0.0063  0.0042
                                            0.0096 -0.0142  0.0056  0.0069  0.0015
                                            0.0041 -0.0038  0.0055 -0.0014  0.0001
                                           -0.0058  0.0015  0.0033 -0.0011 -0.0016
                                            0.0004
                ( 49.72%)  -0.7051* C  12 s( 26.74%)p 2.73( 72.95%)d 0.01(  0.29%)
                                                  f 0.00(  0.01%)
                                            0.0001  0.5171 -0.0002 -0.0070 -0.0001
                                            0.5440  0.0033 -0.0147 -0.1511  0.0012
                                            0.0046 -0.6406 -0.0053  0.0061 -0.0076
                                           -0.0029 -0.0453  0.0005  0.0161 -0.0033
                                            0.0192 -0.0002  0.0122  0.0026  0.0022
                                            0.0070 -0.0023 -0.0067  0.0060  0.0022
                                            0.0010
   434. (0.02278) BD*( 1) C   6 - C   7  
                ( 47.72%)   0.6908* C   6 s( 32.39%)p 2.09( 67.55%)d 0.00(  0.05%)
                                                  f 0.00(  0.00%)
                                            0.0001 -0.5691  0.0039  0.0014  0.0001
                                           -0.5642 -0.0107  0.0012 -0.0714  0.0005
                                           -0.0002  0.5933 -0.0012 -0.0016 -0.0030
                                           -0.0020  0.0139  0.0141  0.0018  0.0017
                                           -0.0027 -0.0045 -0.0059 -0.0051 -0.0002
                                           -0.0024 -0.0012  0.0039  0.0008 -0.0024
                                           -0.0002
                ( 52.28%)  -0.7230* C   7 s( 33.41%)p 1.99( 66.39%)d 0.01(  0.18%)
                                                  f 0.00(  0.02%)
                                           -0.0000 -0.5780  0.0057  0.0053  0.0004
                                            0.5605 -0.0194 -0.0091  0.0804  0.0008
                                           -0.0010 -0.5854  0.0020  0.0090 -0.0044
                                           -0.0011  0.0338  0.0064  0.0066  0.0006
                                           -0.0160 -0.0017 -0.0165 -0.0019  0.0000
                                            0.0076  0.0029 -0.0101 -0.0020  0.0041
                                            0.0017
   435. (0.02775) BD*( 1) C   6 - C  11  
                ( 47.92%)   0.6922* C   6 s( 33.33%)p 2.00( 66.63%)d 0.00(  0.04%)
                                                  f 0.00(  0.00%)
                                            0.0000 -0.5773  0.0044  0.0014  0.0002
                                           -0.2401 -0.0083  0.0001  0.1649  0.0008
                                           -0.0003 -0.7624 -0.0023 -0.0019  0.0003
                                            0.0012 -0.0059 -0.0068  0.0029  0.0048
                                            0.0032  0.0011 -0.0098 -0.0132 -0.0031
                                           -0.0032  0.0023 -0.0013  0.0015 -0.0003
                                            0.0006
                ( 52.08%)  -0.7217* C  11 s( 33.30%)p 2.00( 66.49%)d 0.01(  0.19%)
                                                  f 0.00(  0.02%)
                                           -0.0000 -0.5770  0.0066  0.0053  0.0004
                                            0.2727  0.0150 -0.0040 -0.1613 -0.0021
                                            0.0025  0.7510  0.0078 -0.0120  0.0039
                                            0.0006 -0.0175 -0.0039  0.0142  0.0019
                                           -0.0027  0.0007 -0.0364 -0.0050  0.0082
                                            0.0079 -0.0065  0.0047 -0.0033 -0.0001
                                           -0.0013
   436. (0.01125) BD*( 1) C   7 - C   8  
                ( 49.88%)   0.7063* C   7 s( 36.45%)p 1.74( 63.40%)d 0.00(  0.14%)
                                                  f 0.00(  0.01%)
                                           -0.0000 -0.6036 -0.0139 -0.0058  0.0002
                                           -0.7796  0.0234  0.0013  0.0687  0.0028
                                           -0.0003 -0.1432 -0.0204  0.0014  0.0072
                                            0.0006 -0.0252  0.0007  0.0036 -0.0015
                                           -0.0234 -0.0064  0.0074  0.0077  0.0009
                                            0.0040 -0.0002 -0.0011  0.0011 -0.0091
                                            0.0018
                ( 50.12%)  -0.7079* C   8 s( 35.50%)p 1.81( 64.35%)d 0.00(  0.14%)
                                                  f 0.00(  0.01%)
                                           -0.0000 -0.5957 -0.0068 -0.0030  0.0003
                                            0.7757  0.0160 -0.0065 -0.0787 -0.0063
                                            0.0006  0.1856  0.0290 -0.0012  0.0042
                                            0.0016 -0.0032 -0.0051  0.0009  0.0003
                                           -0.0318 -0.0062  0.0163  0.0038 -0.0032
                                           -0.0020  0.0001  0.0048 -0.0017  0.0073
                                           -0.0025
   437. (0.18679) BD*( 2) C   7 - C   8  
                ( 55.32%)   0.7438* C   7 s(  0.00%)p 1.00( 99.92%)d 0.00(  0.05%)
                                                  f 0.00(  0.03%)
                                            0.0000 -0.0011  0.0002 -0.0004  0.0000
                                            0.0530  0.0010  0.0011  0.9803  0.0109
                                            0.0207  0.1864  0.0020  0.0039  0.0084
                                            0.0116  0.0027  0.0022  0.0167  0.0009
                                            0.0041  0.0014  0.0055  0.0005  0.0039
                                           -0.0000  0.0074  0.0054 -0.0024  0.0019
                                            0.0134
                ( 44.68%)  -0.6684* C   8 s(  0.00%)p 1.00( 99.93%)d 0.00(  0.05%)
                                                  f 0.00(  0.03%)
                                            0.0000 -0.0003  0.0003 -0.0003  0.0000
                                            0.0546 -0.0008  0.0010  0.9802 -0.0127
                                            0.0188  0.1870 -0.0027  0.0036 -0.0153
                                           -0.0073 -0.0024 -0.0012  0.0119  0.0015
                                            0.0006 -0.0005  0.0042  0.0004  0.0041
                                            0.0010  0.0077  0.0060  0.0014  0.0026
                                            0.0125
   438. (0.01045) BD*( 1) C   7 - H  15  
                ( 37.76%)   0.6145* C   7 s( 30.08%)p 2.32( 69.84%)d 0.00(  0.07%)
                                                  f 0.00(  0.02%)
                                           -0.0003  0.5484 -0.0061 -0.0013  0.0006
                                           -0.2680 -0.0124  0.0009  0.1624  0.0041
                                           -0.0006 -0.7744 -0.0171  0.0024 -0.0028
                                           -0.0005  0.0177  0.0037 -0.0044 -0.0030
                                           -0.0066 -0.0015  0.0125  0.0092 -0.0073
                                           -0.0019  0.0064 -0.0078  0.0024 -0.0033
                                            0.0026
                ( 62.24%)  -0.7889* H  15 s( 99.95%)p 0.00(  0.05%)
                                            0.9997  0.0012  0.0004  0.0074 -0.0046
                                            0.0213
   439. (0.01388) BD*( 1) C   8 - C   9  
                ( 49.71%)   0.7051* C   8 s( 34.58%)p 1.89( 65.27%)d 0.00(  0.14%)
                                                  f 0.00(  0.01%)
                                           -0.0000 -0.5880 -0.0067 -0.0011 -0.0002
                                           -0.2546 -0.0310  0.0029  0.1570  0.0035
                                           -0.0014 -0.7497 -0.0093  0.0062  0.0010
                                            0.0015 -0.0045 -0.0076  0.0120  0.0021
                                            0.0005  0.0000 -0.0343 -0.0049 -0.0047
                                           -0.0060  0.0044 -0.0045  0.0028 -0.0011
                                            0.0014
                ( 50.29%)  -0.7091* C   9 s( 35.49%)p 1.81( 64.37%)d 0.00(  0.13%)
                                                  f 0.00(  0.01%)
                                           -0.0000 -0.5957 -0.0060 -0.0016  0.0000
                                            0.2200 -0.0186  0.0014 -0.1578 -0.0037
                                            0.0010  0.7546  0.0247 -0.0057  0.0054
                                            0.0000 -0.0244 -0.0011  0.0103  0.0022
                                           -0.0050  0.0018 -0.0226 -0.0072  0.0082
                                            0.0030 -0.0051  0.0018 -0.0014  0.0005
                                           -0.0007
   440. (0.01253) BD*( 1) C   8 - H  16  
                ( 37.43%)   0.6118* C   8 s( 29.87%)p 2.34( 70.03%)d 0.00(  0.08%)
                                                  f 0.00(  0.02%)
                                            0.0003 -0.5464  0.0109  0.0038 -0.0001
                                           -0.5720  0.0150  0.0056 -0.0836  0.0021
                                            0.0005  0.6047 -0.0153 -0.0043 -0.0050
                                           -0.0008  0.0258  0.0058 -0.0003  0.0010
                                            0.0014 -0.0034 -0.0046 -0.0018  0.0033
                                           -0.0034 -0.0041  0.0078  0.0020 -0.0076
                                           -0.0007
                ( 62.57%)  -0.7910* H  16 s( 99.95%)p 0.00(  0.05%)
                                           -0.9998  0.0003 -0.0011  0.0146  0.0023
                                           -0.0164
   441. (0.01401) BD*( 1) C   9 - C  10  
                ( 50.28%)   0.7091* C   9 s( 35.30%)p 1.83( 64.55%)d 0.00(  0.13%)
                                                  f 0.00(  0.01%)
                                            0.0000  0.5941  0.0057  0.0014 -0.0000
                                           -0.5239  0.0067  0.0015 -0.0857 -0.0061
                                            0.0011  0.6023  0.0298 -0.0060  0.0036
                                            0.0012 -0.0296 -0.0063 -0.0029 -0.0011
                                            0.0188  0.0001  0.0027  0.0043  0.0022
                                           -0.0070 -0.0026  0.0055  0.0022 -0.0028
                                           -0.0009
                ( 49.72%)  -0.7051* C  10 s( 34.48%)p 1.90( 65.36%)d 0.00(  0.14%)
                                                  f 0.00(  0.01%)
                                            0.0000  0.5872  0.0068  0.0011  0.0003
                                            0.5509  0.0316 -0.0055  0.0836 -0.0025
                                           -0.0006 -0.5849  0.0037  0.0046  0.0043
                                            0.0011 -0.0268 -0.0080 -0.0077  0.0001
                                            0.0068  0.0039  0.0227 -0.0011  0.0009
                                            0.0044  0.0018 -0.0075 -0.0017  0.0051
                                            0.0010
   442. (0.01008) BD*( 1) C   9 - H  17  
                ( 37.82%)   0.6150* C   9 s( 29.16%)p 2.43( 70.74%)d 0.00(  0.08%)
                                                  f 0.00(  0.02%)
                                            0.0003 -0.5399  0.0093  0.0030 -0.0001
                                           -0.8196  0.0227  0.0039  0.0788 -0.0022
                                           -0.0003 -0.1701  0.0048  0.0008  0.0038
                                            0.0011 -0.0112 -0.0022 -0.0035  0.0002
                                           -0.0147 -0.0055  0.0206  0.0030 -0.0005
                                           -0.0013  0.0012 -0.0021  0.0036 -0.0116
                                            0.0026
                ( 62.18%)  -0.7886* H  17 s( 99.95%)p 0.00(  0.05%)
                                           -0.9997 -0.0001 -0.0007  0.0219 -0.0021
                                            0.0044
   443. (0.01113) BD*( 1) C  10 - C  11  
                ( 50.27%)   0.7090* C  10 s( 35.71%)p 1.80( 64.14%)d 0.00(  0.14%)
                                                  f 0.00(  0.01%)
                                            0.0000  0.5976  0.0075  0.0030 -0.0003
                                           -0.7860 -0.0274  0.0067  0.0697 -0.0024
                                           -0.0006 -0.1327  0.0202  0.0013 -0.0068
                                           -0.0010  0.0193  0.0009 -0.0031  0.0003
                                            0.0273  0.0074 -0.0102 -0.0055  0.0008
                                            0.0045 -0.0002 -0.0015  0.0009 -0.0084
                                            0.0018
                ( 49.73%)  -0.7052* C  11 s( 36.55%)p 1.73( 63.29%)d 0.00(  0.14%)
                                                  f 0.00(  0.01%)
                                            0.0000  0.6044  0.0148  0.0050 -0.0002
                                            0.7739  0.0129 -0.0024 -0.0756 -0.0058
                                           -0.0001  0.1655  0.0263  0.0013 -0.0027
                                           -0.0018 -0.0046  0.0072  0.0002  0.0005
                                            0.0313  0.0036 -0.0181 -0.0045 -0.0021
                                           -0.0015 -0.0007  0.0048 -0.0019  0.0076
                                           -0.0025
   444. (0.17797) BD*( 2) C  10 - C  11  
                ( 45.75%)   0.6764* C  10 s(  0.00%)p 1.00( 99.93%)d 0.00(  0.04%)
                                                  f 0.00(  0.03%)
                                           -0.0000 -0.0002  0.0002 -0.0001 -0.0000
                                           -0.0547  0.0006 -0.0010 -0.9793  0.0128
                                           -0.0187 -0.1917  0.0025 -0.0035  0.0088
                                            0.0065  0.0026  0.0015  0.0156  0.0038
                                            0.0042  0.0015  0.0056  0.0014 -0.0037
                                           -0.0000 -0.0067 -0.0055  0.0017 -0.0020
                                           -0.0134
                ( 54.25%)  -0.7366* C  11 s(  0.00%)p 1.00( 99.92%)d 0.00(  0.05%)
                                                  f 0.00(  0.03%)
                                           -0.0000 -0.0020 -0.0000  0.0003 -0.0000
                                           -0.0529  0.0007 -0.0008 -0.9791  0.0104
                                           -0.0210 -0.1926  0.0022 -0.0040 -0.0159
                                           -0.0103 -0.0023 -0.0022  0.0111 -0.0026
                                            0.0005 -0.0016  0.0042 -0.0011 -0.0050
                                           -0.0010 -0.0089 -0.0063 -0.0009 -0.0024
                                           -0.0121
   445. (0.01235) BD*( 1) C  10 - H  18  
                ( 37.48%)   0.6122* C  10 s( 29.75%)p 2.36( 70.15%)d 0.00(  0.08%)
                                                  f 0.00(  0.02%)
                                            0.0003 -0.5453  0.0115  0.0038 -0.0001
                                           -0.2682  0.0072  0.0029  0.1668 -0.0043
                                           -0.0011 -0.7754  0.0200  0.0055  0.0014
                                            0.0009 -0.0133 -0.0041  0.0053  0.0023
                                            0.0111 -0.0009 -0.0192 -0.0053 -0.0063
                                           -0.0027  0.0062 -0.0076  0.0026 -0.0028
                                            0.0025
                ( 62.52%)  -0.7907* H  18 s( 99.95%)p 0.00(  0.05%)
                                           -0.9998  0.0003 -0.0011  0.0063 -0.0044
                                            0.0205
   446. (0.01111) BD*( 1) C  11 - H  19  
                ( 38.03%)   0.6166* C  11 s( 30.09%)p 2.32( 69.83%)d 0.00(  0.07%)
                                                  f 0.00(  0.02%)
                                           -0.0003  0.5485 -0.0057 -0.0006  0.0005
                                           -0.5670  0.0167  0.0014 -0.0899  0.0007
                                            0.0003  0.6069 -0.0091 -0.0022  0.0043
                                            0.0016 -0.0234 -0.0086  0.0015 -0.0017
                                            0.0038  0.0012 -0.0031  0.0052  0.0039
                                           -0.0039 -0.0048  0.0084  0.0022 -0.0075
                                           -0.0009
                ( 61.97%)  -0.7872* H  19 s( 99.94%)p 0.00(  0.06%)
                                            0.9997  0.0013  0.0004  0.0154  0.0028
                                           -0.0175
   447. (0.00469) BD*( 1) C  12 - H  20  
                ( 37.83%)   0.6151* C  12 s( 24.35%)p 3.10( 75.48%)d 0.01(  0.16%)
                                                  f 0.00(  0.01%)
                                           -0.0002  0.4935  0.0022 -0.0005  0.0002
                                           -0.2474 -0.0074 -0.0055 -0.7492  0.0046
                                           -0.0004  0.3635  0.0034  0.0014  0.0062
                                            0.0038 -0.0014 -0.0024 -0.0195 -0.0023
                                           -0.0317  0.0008 -0.0105 -0.0013 -0.0020
                                            0.0012 -0.0000 -0.0032  0.0063  0.0009
                                            0.0036
                ( 62.17%)  -0.7885* H  20 s( 99.97%)p 0.00(  0.03%)
                                            0.9999  0.0007 -0.0001  0.0053  0.0137
                                           -0.0085
   448. (0.00451) BD*( 1) C  12 - H  21  
                ( 37.59%)   0.6131* C  12 s( 23.30%)p 3.28( 76.53%)d 0.01(  0.16%)
                                                  f 0.00(  0.01%)
                                            0.0002 -0.4827  0.0011 -0.0015 -0.0001
                                           -0.3971  0.0091  0.0001 -0.4831 -0.0024
                                           -0.0037 -0.6116 -0.0030 -0.0028 -0.0238
                                            0.0004 -0.0257 -0.0005 -0.0184 -0.0037
                                           -0.0073  0.0033 -0.0011 -0.0021 -0.0001
                                           -0.0019 -0.0032  0.0032 -0.0050 -0.0012
                                           -0.0039
                ( 62.41%)  -0.7900* H  21 s( 99.97%)p 0.00(  0.03%)
                                           -0.9999 -0.0006  0.0001  0.0064  0.0090
                                            0.0123
   449. (0.00392) BD*( 1) C  12 - H  22  
                ( 37.52%)   0.6125* C  12 s( 25.55%)p 2.91( 74.33%)d 0.00(  0.12%)
                                                  f 0.00(  0.01%)
                                           -0.0001  0.5054  0.0006  0.0052 -0.0002
                                           -0.6946 -0.0005 -0.0055  0.4248 -0.0030
                                            0.0024 -0.2833  0.0076  0.0001 -0.0221
                                           -0.0028  0.0200  0.0018 -0.0118 -0.0020
                                            0.0081  0.0020 -0.0077 -0.0002  0.0011
                                            0.0027  0.0002 -0.0033  0.0066  0.0009
                                            0.0058
                ( 62.48%)  -0.7904* H  22 s( 99.97%)p 0.00(  0.03%)
                                            0.9998  0.0010  0.0001  0.0156 -0.0095
                                            0.0038


 NHO Directionality and "Bond Bending" (deviations from line of nuclear centers)

         [Thresholds for printing:  angular deviation  >  1.0 degree]
                                    hybrid p-character > 25.0%
                                    orbital occupancy  >  0.10e

                                Line of Centers        Hybrid 1              Hybrid 2
                                ---------------  -------------------   ------------------
                NBO               Theta   Phi    Theta   Phi    Dev    Theta   Phi    Dev
 ========================================================================================
     1. BD (   1) C   1 - C   2    52.4  184.1    50.2  184.4   2.2    126.3    5.9   2.0
     2. BD (   1) C   1 - C   6    75.7  352.8    73.4  351.1   2.8    102.5  174.3   2.3
     3. BD (   2) C   1 - C   6    75.7  352.8    78.9   84.4  88.8     79.2   86.1  89.5
     5. BD (   1) C   2 -Br   3   105.6  249.7   103.3  246.7   3.7      --     --    --
     6. BD (   1) C   2 - C   4   102.6  139.1     --     --    --      79.7  320.3   2.6
     8. BD (   1) C   4 - O   5   154.5   94.7   155.4  100.2   2.5     27.9  272.1   2.7
     9. BD (   2) C   4 - O   5   154.5   94.7    71.6   54.5  88.4     68.6   54.1  88.6
    10. BD (   1) C   4 - C  12    42.0  166.0    45.6  164.4   3.7    139.2  344.7   1.5
    11. BD (   1) C   6 - C   7   136.9    8.2   135.6    7.1   1.5      --     --    --
    12. BD (   1) C   6 - C  11    21.4  327.0     --     --    --     156.4  150.4   2.5
    13. BD (   1) C   7 - C   8    78.2  354.6     --     --    --     105.1  173.9   3.4
    14. BD (   2) C   7 - C   8    78.2  354.6   100.7  266.9  90.0     79.2   86.8  90.1
    16. BD (   1) C   8 - C   9    20.4  325.8    23.3  330.6   3.4    161.5  141.6   2.4
    18. BD (   1) C   9 - C  10    42.2  189.1    39.9  190.0   2.4    134.7    7.9   3.2
    20. BD (   1) C  10 - C  11   100.9  174.7    97.8  175.3   3.1     76.2  354.1   2.9
    21. BD (   2) C  10 - C  11   100.9  174.7    78.9   86.8  90.0     78.9   86.9  90.1
    24. BD (   1) C  12 - H  20    64.4  252.5    65.0  250.7   1.7      --     --    --
    25. BD (   1) C  12 - H  21    45.5   49.5    45.3   51.6   1.5      --     --    --
    26. BD (   1) C  12 - H  22   109.8  148.0   108.6  148.8   1.4      --     --    --
    53. LP (   2)Br   3             --     --     43.0  319.5   --       --     --    --
    54. LP (   3)Br   3             --     --     52.5  172.8   --       --     --    --
    55. LP (   1) O   5             --     --    155.0   93.4   --       --     --    --
    56. LP (   2) O   5             --     --     74.9  150.1   --       --     --    --
    57. LP*(   1) C   9             --     --    100.9  266.8   --       --     --    --
   426. BD*(   2) C   1 - C   6    75.7  352.8    78.9   84.4  88.8     79.2   86.1  89.5
   437. BD*(   2) C   7 - C   8    78.2  354.6   100.7  266.9  90.0     79.2   86.8  90.1
   444. BD*(   2) C  10 - C  11   100.9  174.7    78.9   86.8  90.0     78.9   86.9  90.1


 Second Order Perturbation Theory Analysis of Fock Matrix in NBO Basis

     Threshold for printing:   0.50 kcal/mol
                                                                              E(2)  E(j)-E(i) F(i,j)
         Donor NBO (i)                     Acceptor NBO (j)                 kcal/mol   a.u.    a.u. 
 ===================================================================================================

 within unit  1
   1. BD (   1) C   1 - C   2        /140. RY*(   1) C   4                    1.50    1.99    0.049
   1. BD (   1) C   1 - C   2        /193. RY*(   2) C   6                    1.75    2.38    0.058
   1. BD (   1) C   1 - C   2        /425. BD*(   1) C   1 - C   6            0.67    1.41    0.028
   1. BD (   1) C   1 - C   2        /433. BD*(   1) C   4 - C  12            1.82    1.27    0.043
   1. BD (   1) C   1 - C   2        /434. BD*(   1) C   6 - C   7            3.68    1.37    0.063
   2. BD (   1) C   1 - C   6        / 84. RY*(   1) C   2                    1.06    1.81    0.039
   2. BD (   1) C   1 - C   6        /218. RY*(   1) C   7                    1.05    2.42    0.045
   2. BD (   1) C   1 - C   6        /322. RY*(   1) C  11                    0.78    2.46    0.039
   2. BD (   1) C   1 - C   6        /424. BD*(   1) C   1 - C   2            0.52    1.31    0.023
   2. BD (   1) C   1 - C   6        /429. BD*(   1) C   2 - C   4            1.35    1.22    0.037
   2. BD (   1) C   1 - C   6        /434. BD*(   1) C   6 - C   7            1.90    1.40    0.046
   2. BD (   1) C   1 - C   6        /435. BD*(   1) C   6 - C  11            2.38    1.40    0.052
   2. BD (   1) C   1 - C   6        /436. BD*(   1) C   7 - C   8            1.77    1.49    0.046
   2. BD (   1) C   1 - C   6        /443. BD*(   1) C  10 - C  11            1.52    1.49    0.043
   3. BD (   2) C   1 - C   6        / 57. LP*(   1) C   9                    1.27    0.22    0.016
   3. BD (   2) C   1 - C   6        /221. RY*(   4) C   7                    1.62    1.42    0.049
   3. BD (   2) C   1 - C   6        /325. RY*(   4) C  11                    1.52    1.22    0.044
   3. BD (   2) C   1 - C   6        /426. BD*(   2) C   1 - C   6            6.62    0.39    0.049
   3. BD (   2) C   1 - C   6        /428. BD*(   1) C   2 -Br   3            3.99    0.42    0.041
   3. BD (   2) C   1 - C   6        /429. BD*(   1) C   2 - C   4            1.20    0.69    0.028
   3. BD (   2) C   1 - C   6        /437. BD*(   2) C   7 - C   8           33.30    0.41    0.112
   3. BD (   2) C   1 - C   6        /444. BD*(   2) C  10 - C  11           30.30    0.41    0.108
   4. BD (   1) C   1 - H  13        / 84. RY*(   1) C   2                    1.29    1.59    0.041
   4. BD (   1) C   1 - H  13        / 85. RY*(   2) C   2                    1.34    1.70    0.043
   4. BD (   1) C   1 - H  13        / 87. RY*(   4) C   2                    1.01    2.18    0.042
   4. BD (   1) C   1 - H  13        /192. RY*(   1) C   6                    1.75    2.07    0.054
   4. BD (   1) C   1 - H  13        /193. RY*(   2) C   6                    2.53    2.20    0.067
   4. BD (   1) C   1 - H  13        /194. RY*(   3) C   6                    0.79    2.88    0.043
   4. BD (   1) C   1 - H  13        /430. BD*(   1) C   2 - H  14            4.11    1.08    0.060
   4. BD (   1) C   1 - H  13        /435. BD*(   1) C   6 - C  11            7.89    1.19    0.086
   5. BD (   1) C   2 -Br   3        / 59. RY*(   2) C   1                    0.69    1.43    0.029
   5. BD (   1) C   2 -Br   3        / 60. RY*(   3) C   1                    0.51    1.60    0.026
   5. BD (   1) C   2 -Br   3        /142. RY*(   3) C   4                    0.75    1.83    0.034
   5. BD (   1) C   2 -Br   3        /425. BD*(   1) C   1 - C   6            1.64    1.21    0.041
   5. BD (   1) C   2 -Br   3        /426. BD*(   2) C   1 - C   6           16.48    0.69    0.096
   5. BD (   1) C   2 -Br   3        /432. BD*(   2) C   4 - O   5            8.35    0.71    0.069
   6. BD (   1) C   2 - C   4        / 58. RY*(   1) C   1                    0.93    1.88    0.038
   6. BD (   1) C   2 - C   4        /166. RY*(   1) O   5                    1.06    1.81    0.039
   6. BD (   1) C   2 - C   4        /348. RY*(   1) C  12                    0.96    1.98    0.039
   6. BD (   1) C   2 - C   4        /425. BD*(   1) C   1 - C   6            3.43    1.32    0.060
   6. BD (   1) C   2 - C   4        /426. BD*(   2) C   1 - C   6            2.34    0.79    0.040
   6. BD (   1) C   2 - C   4        /449. BD*(   1) C  12 - H  22            1.47    1.20    0.038
   7. BD (   1) C   2 - H  14        / 58. RY*(   1) C   1                    1.22    1.78    0.042
   7. BD (   1) C   2 - H  14        /141. RY*(   2) C   4                    0.64    2.32    0.034
   7. BD (   1) C   2 - H  14        /427. BD*(   1) C   1 - H  13            3.99    1.12    0.060
   7. BD (   1) C   2 - H  14        /428. BD*(   1) C   2 -Br   3            0.91    0.74    0.023
   7. BD (   1) C   2 - H  14        /431. BD*(   1) C   4 - O   5            3.14    1.31    0.057
   7. BD (   1) C   2 - H  14        /432. BD*(   2) C   4 - O   5            1.07    0.72    0.025
   8. BD (   1) C   4 - O   5        /140. RY*(   1) C   4                    1.36    2.37    0.051
   8. BD (   1) C   4 - O   5        /430. BD*(   1) C   2 - H  14            0.55    1.64    0.027
   9. BD (   2) C   4 - O   5        /428. BD*(   1) C   2 -Br   3            3.27    0.57    0.039
   9. BD (   2) C   4 - O   5        /447. BD*(   1) C  12 - H  20            1.23    0.93    0.030
   9. BD (   2) C   4 - O   5        /448. BD*(   1) C  12 - H  21            1.75    0.92    0.036
  10. BD (   1) C   4 - C  12        / 84. RY*(   1) C   2                    0.79    1.69    0.033
  10. BD (   1) C   4 - C  12        /166. RY*(   1) O   5                    0.89    1.82    0.036
  10. BD (   1) C   4 - C  12        /424. BD*(   1) C   1 - C   2            2.11    1.20    0.045
  11. BD (   1) C   6 - C   7        / 58. RY*(   1) C   1                    1.04    1.93    0.040
  11. BD (   1) C   6 - C   7        /244. RY*(   1) C   8                    0.67    2.47    0.036
  11. BD (   1) C   6 - C   7        /245. RY*(   2) C   8                    1.11    2.34    0.046
  11. BD (   1) C   6 - C   7        /322. RY*(   1) C  11                    0.60    2.40    0.034
  11. BD (   1) C   6 - C   7        /424. BD*(   1) C   1 - C   2            4.65    1.24    0.068
  11. BD (   1) C   6 - C   7        /425. BD*(   1) C   1 - C   6            2.18    1.38    0.049
  11. BD (   1) C   6 - C   7        /435. BD*(   1) C   6 - C  11            1.74    1.34    0.043
  11. BD (   1) C   6 - C   7        /436. BD*(   1) C   7 - C   8            0.99    1.42    0.034
  11. BD (   1) C   6 - C   7        /440. BD*(   1) C   8 - H  16            3.03    1.28    0.056
  11. BD (   1) C   6 - C   7        /446. BD*(   1) C  11 - H  19            2.41    1.28    0.050
  12. BD (   1) C   6 - C  11        / 60. RY*(   3) C   1                    0.83    1.77    0.034
  12. BD (   1) C   6 - C  11        /218. RY*(   1) C   7                    0.64    2.36    0.035
  12. BD (   1) C   6 - C  11        /296. RY*(   1) C  10                    0.83    2.46    0.040
  12. BD (   1) C   6 - C  11        /297. RY*(   2) C  10                    1.11    2.31    0.045
  12. BD (   1) C   6 - C  11        /425. BD*(   1) C   1 - C   6            2.60    1.38    0.054
  12. BD (   1) C   6 - C  11        /427. BD*(   1) C   1 - H  13            2.55    1.27    0.051
  12. BD (   1) C   6 - C  11        /434. BD*(   1) C   6 - C   7            1.72    1.34    0.043
  12. BD (   1) C   6 - C  11        /438. BD*(   1) C   7 - H  15            2.11    1.28    0.047
  12. BD (   1) C   6 - C  11        /443. BD*(   1) C  10 - C  11            1.20    1.43    0.037
  12. BD (   1) C   6 - C  11        /445. BD*(   1) C  10 - H  18            2.98    1.29    0.055
  13. BD (   1) C   7 - C   8        /192. RY*(   1) C   6                    0.52    2.26    0.031
  13. BD (   1) C   7 - C   8        /193. RY*(   2) C   6                    1.54    2.38    0.054
  13. BD (   1) C   7 - C   8        /270. RY*(   1) C   9                    0.96    2.44    0.043
  13. BD (   1) C   7 - C   8        /271. RY*(   2) C   9                    0.71    2.42    0.037
  13. BD (   1) C   7 - C   8        /425. BD*(   1) C   1 - C   6            3.59    1.41    0.064
  13. BD (   1) C   7 - C   8        /434. BD*(   1) C   6 - C   7            1.12    1.37    0.035
  13. BD (   1) C   7 - C   8        /438. BD*(   1) C   7 - H  15            0.53    1.31    0.023
  13. BD (   1) C   7 - C   8        /439. BD*(   1) C   8 - C   9            1.54    1.42    0.042
  13. BD (   1) C   7 - C   8        /440. BD*(   1) C   8 - H  16            0.67    1.32    0.026
  13. BD (   1) C   7 - C   8        /442. BD*(   1) C   9 - H  17            2.35    1.32    0.050
  14. BD (   2) C   7 - C   8        / 57. LP*(   1) C   9                   96.42    0.21    0.143
  14. BD (   2) C   7 - C   8        /274. RY*(   5) C   9                    0.83    0.93    0.028
  14. BD (   2) C   7 - C   8        /426. BD*(   2) C   1 - C   6           10.42    0.38    0.060
  14. BD (   2) C   7 - C   8        /437. BD*(   2) C   7 - C   8            0.85    0.40    0.017
  15. BD (   1) C   7 - H  15        /192. RY*(   1) C   6                    0.96    2.05    0.040
  15. BD (   1) C   7 - H  15        /193. RY*(   2) C   6                    1.31    2.18    0.048
  15. BD (   1) C   7 - H  15        /194. RY*(   3) C   6                    0.91    2.86    0.046
  15. BD (   1) C   7 - H  15        /244. RY*(   1) C   8                    2.27    2.30    0.065
  15. BD (   1) C   7 - H  15        /247. RY*(   4) C   8                    0.56    1.89    0.029
  15. BD (   1) C   7 - H  15        /389. RY*(   1) H  16                    0.74    1.66    0.031
  15. BD (   1) C   7 - H  15        /424. BD*(   1) C   1 - C   2            0.68    1.07    0.024
  15. BD (   1) C   7 - H  15        /435. BD*(   1) C   6 - C  11            5.71    1.17    0.073
  15. BD (   1) C   7 - H  15        /439. BD*(   1) C   8 - C   9            4.66    1.22    0.067
  15. BD (   1) C   7 - H  15        /440. BD*(   1) C   8 - H  16            0.65    1.11    0.024
  16. BD (   1) C   8 - C   9        /218. RY*(   1) C   7                    0.81    2.38    0.039
  16. BD (   1) C   8 - C   9        /219. RY*(   2) C   7                    1.50    2.21    0.052
  16. BD (   1) C   8 - C   9        /296. RY*(   1) C  10                    1.07    2.47    0.046
  16. BD (   1) C   8 - C   9        /297. RY*(   2) C  10                    0.93    2.32    0.042
  16. BD (   1) C   8 - C   9        /436. BD*(   1) C   7 - C   8            1.68    1.44    0.044
  16. BD (   1) C   8 - C   9        /438. BD*(   1) C   7 - H  15            3.03    1.29    0.056
  16. BD (   1) C   8 - C   9        /440. BD*(   1) C   8 - H  16            0.51    1.30    0.023
  16. BD (   1) C   8 - C   9        /441. BD*(   1) C   9 - C  10            0.88    1.40    0.031
  16. BD (   1) C   8 - C   9        /445. BD*(   1) C  10 - H  18            2.51    1.30    0.051
  17. BD (   1) C   8 - H  16        /218. RY*(   1) C   7                    2.11    2.17    0.061
  17. BD (   1) C   8 - H  16        /270. RY*(   1) C   9                    1.67    2.22    0.055
  17. BD (   1) C   8 - H  16        /434. BD*(   1) C   6 - C   7            5.06    1.15    0.068
  17. BD (   1) C   8 - H  16        /436. BD*(   1) C   7 - C   8            0.55    1.24    0.023
  17. BD (   1) C   8 - H  16        /438. BD*(   1) C   7 - H  15            0.54    1.09    0.022
  17. BD (   1) C   8 - H  16        /441. BD*(   1) C   9 - C  10            4.52    1.20    0.066
  17. BD (   1) C   8 - H  16        /442. BD*(   1) C   9 - H  17            0.57    1.10    0.022
  18. BD (   1) C   9 - C  10        /244. RY*(   1) C   8                    1.10    2.49    0.047
  18. BD (   1) C   9 - C  10        /245. RY*(   2) C   8                    0.86    2.36    0.040
  18. BD (   1) C   9 - C  10        /322. RY*(   1) C  11                    0.81    2.41    0.040
  18. BD (   1) C   9 - C  10        /323. RY*(   2) C  11                    1.50    2.26    0.052
  18. BD (   1) C   9 - C  10        /439. BD*(   1) C   8 - C   9            0.89    1.41    0.032
  18. BD (   1) C   9 - C  10        /440. BD*(   1) C   8 - H  16            2.60    1.30    0.052
  18. BD (   1) C   9 - C  10        /443. BD*(   1) C  10 - C  11            1.67    1.44    0.044
  18. BD (   1) C   9 - C  10        /446. BD*(   1) C  11 - H  19            3.00    1.29    0.056
  19. BD (   1) C   9 - H  17        /244. RY*(   1) C   8                    1.77    2.29    0.057
  19. BD (   1) C   9 - H  17        /246. RY*(   3) C   8                    0.64    2.18    0.034
  19. BD (   1) C   9 - H  17        /296. RY*(   1) C  10                    1.79    2.28    0.057
  19. BD (   1) C   9 - H  17        /298. RY*(   3) C  10                    0.56    2.03    0.030
  19. BD (   1) C   9 - H  17        /399. RY*(   1) H  18                    0.50    1.63    0.026
  19. BD (   1) C   9 - H  17        /436. BD*(   1) C   7 - C   8            4.65    1.25    0.068
  19. BD (   1) C   9 - H  17        /440. BD*(   1) C   8 - H  16            0.69    1.11    0.025
  19. BD (   1) C   9 - H  17        /443. BD*(   1) C  10 - C  11            4.68    1.25    0.068
  19. BD (   1) C   9 - H  17        /445. BD*(   1) C  10 - H  18            0.69    1.11    0.025
  20. BD (   1) C  10 - C  11        /192. RY*(   1) C   6                    1.83    2.26    0.057
  20. BD (   1) C  10 - C  11        /270. RY*(   1) C   9                    0.95    2.44    0.043
  20. BD (   1) C  10 - C  11        /271. RY*(   2) C   9                    0.70    2.42    0.037
  20. BD (   1) C  10 - C  11        /425. BD*(   1) C   1 - C   6            4.20    1.41    0.069
  20. BD (   1) C  10 - C  11        /435. BD*(   1) C   6 - C  11            1.39    1.37    0.039
  20. BD (   1) C  10 - C  11        /441. BD*(   1) C   9 - C  10            1.50    1.42    0.041
  20. BD (   1) C  10 - C  11        /442. BD*(   1) C   9 - H  17            2.26    1.32    0.049
  20. BD (   1) C  10 - C  11        /445. BD*(   1) C  10 - H  18            0.67    1.32    0.026
  20. BD (   1) C  10 - C  11        /446. BD*(   1) C  11 - H  19            0.60    1.31    0.025
  21. BD (   2) C  10 - C  11        / 57. LP*(   1) C   9                   87.47    0.21    0.139
  21. BD (   2) C  10 - C  11        /274. RY*(   5) C   9                    1.34    0.94    0.035
  21. BD (   2) C  10 - C  11        /426. BD*(   2) C   1 - C   6           12.60    0.38    0.065
  21. BD (   2) C  10 - C  11        /444. BD*(   2) C  10 - C  11            0.62    0.41    0.015
  22. BD (   1) C  10 - H  18        /270. RY*(   1) C   9                    1.63    2.22    0.054
  22. BD (   1) C  10 - H  18        /322. RY*(   1) C  11                    2.23    2.21    0.063
  22. BD (   1) C  10 - H  18        /435. BD*(   1) C   6 - C  11            5.19    1.15    0.069
  22. BD (   1) C  10 - H  18        /439. BD*(   1) C   8 - C   9            4.46    1.20    0.066
  22. BD (   1) C  10 - H  18        /442. BD*(   1) C   9 - H  17            0.57    1.10    0.022
  22. BD (   1) C  10 - H  18        /443. BD*(   1) C  10 - C  11            0.56    1.24    0.024
  22. BD (   1) C  10 - H  18        /446. BD*(   1) C  11 - H  19            0.58    1.09    0.023
  23. BD (   1) C  11 - H  19        /192. RY*(   1) C   6                    1.80    2.06    0.055
  23. BD (   1) C  11 - H  19        /195. RY*(   4) C   6                    0.98    2.63    0.046
  23. BD (   1) C  11 - H  19        /296. RY*(   1) C  10                    2.14    2.28    0.063
  23. BD (   1) C  11 - H  19        /299. RY*(   4) C  10                    0.65    2.18    0.034
  23. BD (   1) C  11 - H  19        /399. RY*(   1) H  18                    0.70    1.64    0.030
  23. BD (   1) C  11 - H  19        /434. BD*(   1) C   6 - C   7            5.52    1.17    0.072
  23. BD (   1) C  11 - H  19        /441. BD*(   1) C   9 - C  10            4.76    1.22    0.068
  23. BD (   1) C  11 - H  19        /443. BD*(   1) C  10 - C  11            0.53    1.26    0.023
  23. BD (   1) C  11 - H  19        /445. BD*(   1) C  10 - H  18            0.65    1.11    0.024
  24. BD (   1) C  12 - H  20        /431. BD*(   1) C   4 - O   5            4.12    1.25    0.064
  24. BD (   1) C  12 - H  20        /432. BD*(   2) C   4 - O   5            5.99    0.67    0.057
  25. BD (   1) C  12 - H  21        /431. BD*(   1) C   4 - O   5            2.24    1.25    0.048
  25. BD (   1) C  12 - H  21        /432. BD*(   2) C   4 - O   5           10.93    0.66    0.077
  26. BD (   1) C  12 - H  22        /429. BD*(   1) C   2 - C   4            5.56    0.94    0.066
  27. CR (   1) C   1                / 85. RY*(   2) C   2                    1.14   11.29    0.101
  27. CR (   1) C   1                /192. RY*(   1) C   6                    1.22   11.66    0.106
  27. CR (   1) C   1                /197. RY*(   6) C   6                    0.64   11.62    0.077
  27. CR (   1) C   1                /434. BD*(   1) C   6 - C   7            0.52   10.77    0.067
  27. CR (   1) C   1                /435. BD*(   1) C   6 - C  11            0.89   10.77    0.088
  28. CR (   1) C   2                / 59. RY*(   2) C   1                    0.61   11.04    0.073
  28. CR (   1) C   2                / 60. RY*(   3) C   1                    0.75   11.22    0.082
  28. CR (   1) C   2                /141. RY*(   2) C   4                    1.00   11.92    0.097
  28. CR (   1) C   2                /425. BD*(   1) C   1 - C   6            0.63   10.83    0.074
  28. CR (   1) C   2                /428. BD*(   1) C   2 -Br   3            1.61   10.33    0.116
  43. CR (   1) C   4                /169. RY*(   4) O   5                    0.70   11.26    0.079
  43. CR (   1) C   4                /352. RY*(   5) C  12                    0.58   11.68    0.073
  44. CR (   1) O   5                /140. RY*(   1) C   4                    6.62   20.13    0.327
  44. CR (   1) O   5                /433. BD*(   1) C   4 - C  12            0.53   19.40    0.091
  45. CR (   1) C   6                / 58. RY*(   1) C   1                    0.64   11.31    0.076
  45. CR (   1) C   6                / 60. RY*(   3) C   1                    0.73   11.15    0.080
  45. CR (   1) C   6                /219. RY*(   2) C   7                    1.07   11.58    0.099
  45. CR (   1) C   6                /323. RY*(   2) C  11                    0.91   11.62    0.092
  45. CR (   1) C   6                /424. BD*(   1) C   1 - C   2            0.80   10.62    0.083
  46. CR (   1) C   7                /192. RY*(   1) C   6                    1.10   11.60    0.101
  46. CR (   1) C   7                /245. RY*(   2) C   8                    1.26   11.72    0.108
  46. CR (   1) C   7                /246. RY*(   3) C   8                    0.53   11.73    0.070
  46. CR (   1) C   7                /425. BD*(   1) C   1 - C   6            0.65   10.76    0.075
  46. CR (   1) C   7                /435. BD*(   1) C   6 - C  11            0.62   10.72    0.073
  47. CR (   1) C   8                /219. RY*(   2) C   7                    0.91   11.55    0.091
  47. CR (   1) C   8                /271. RY*(   2) C   9                    1.00   11.74    0.097
  47. CR (   1) C   8                /390. RY*(   2) H  16                    0.58   11.99    0.074
  48. CR (   1) C   9                /245. RY*(   2) C   8                    0.97   11.72    0.095
  48. CR (   1) C   9                /247. RY*(   4) C   8                    0.53   11.44    0.070
  48. CR (   1) C   9                /297. RY*(   2) C  10                    0.94   11.68    0.093
  48. CR (   1) C   9                /299. RY*(   4) C  10                    0.51   11.73    0.069
  48. CR (   1) C   9                /395. RY*(   2) H  17                    0.57   12.03    0.074
  49. CR (   1) C  10                /271. RY*(   2) C   9                    0.99   11.74    0.096
  49. CR (   1) C  10                /323. RY*(   2) C  11                    0.85   11.60    0.089
  49. CR (   1) C  10                /400. RY*(   2) H  18                    0.59   12.02    0.075
  50. CR (   1) C  11                /193. RY*(   2) C   6                    1.57   11.73    0.121
  50. CR (   1) C  11                /297. RY*(   2) C  10                    1.39   11.68    0.114
  50. CR (   1) C  11                /425. BD*(   1) C   1 - C   6            0.87   10.75    0.087
  50. CR (   1) C  11                /434. BD*(   1) C   6 - C   7            0.55   10.71    0.069
  50. CR (   1) C  11                /441. BD*(   1) C   9 - C  10            0.52   10.76    0.067
  51. CR (   1) C  12                /141. RY*(   2) C   4                    1.08   11.80    0.101
  51. CR (   1) C  12                /431. BD*(   1) C   4 - O   5            0.75   10.80    0.081
  52. LP (   1)Br   3                / 88. RY*(   5) C   2                    0.54    2.42    0.032
  52. LP (   1)Br   3                /425. BD*(   1) C   1 - C   6            0.51    1.57    0.025
  52. LP (   1)Br   3                /426. BD*(   2) C   1 - C   6            0.81    1.05    0.027
  53. LP (   2)Br   3                / 84. RY*(   1) C   2                    0.53    1.33    0.024
  53. LP (   2)Br   3                / 86. RY*(   3) C   2                    0.80    1.48    0.031
  53. LP (   2)Br   3                /429. BD*(   1) C   2 - C   4            2.62    0.74    0.040
  53. LP (   2)Br   3                /430. BD*(   1) C   2 - H  14            2.35    0.82    0.039
  53. LP (   2)Br   3                /432. BD*(   2) C   4 - O   5            1.67    0.47    0.025
  54. LP (   3)Br   3                / 85. RY*(   2) C   2                    1.06    1.44    0.036
  54. LP (   3)Br   3                /424. BD*(   1) C   1 - C   2            1.99    0.83    0.037
  54. LP (   3)Br   3                /426. BD*(   2) C   1 - C   6            8.19    0.43    0.054
  54. LP (   3)Br   3                /429. BD*(   1) C   2 - C   4            0.82    0.74    0.022
  54. LP (   3)Br   3                /430. BD*(   1) C   2 - H  14            0.55    0.81    0.019
  54. LP (   3)Br   3                /432. BD*(   2) C   4 - O   5            1.17    0.46    0.021
  55. LP (   1) O   5                /140. RY*(   1) C   4                   18.91    1.98    0.173
  55. LP (   1) O   5                /167. RY*(   2) O   5                    0.62    2.56    0.036
  55. LP (   1) O   5                /429. BD*(   1) C   2 - C   4            2.34    1.17    0.047
  55. LP (   1) O   5                /433. BD*(   1) C   4 - C  12            2.95    1.25    0.055
  56. LP (   2) O   5                /141. RY*(   2) C   4                    0.73    2.03    0.035
  56. LP (   2) O   5                /143. RY*(   4) C   4                    1.43    3.44    0.065
  56. LP (   2) O   5                /425. BD*(   1) C   1 - C   6            0.51    0.94    0.020
  56. LP (   2) O   5                /429. BD*(   1) C   2 - C   4           35.93    0.71    0.144
  56. LP (   2) O   5                /433. BD*(   1) C   4 - C  12           24.00    0.80    0.126
  57. LP*(   1) C   9                /248. RY*(   5) C   8                    1.46    0.73    0.046
  57. LP*(   1) C   9                /274. RY*(   5) C   9                    2.63    0.72    0.062
  57. LP*(   1) C   9                /300. RY*(   5) C  10                    1.43    0.77    0.047
  57. LP*(   1) C   9                /437. BD*(   2) C   7 - C   8           45.77    0.19    0.119
  57. LP*(   1) C   9                /444. BD*(   2) C  10 - C  11           45.28    0.19    0.119
 426. BD*(   2) C   1 - C   6        /428. BD*(   1) C   2 -Br   3            6.43    0.04    0.048
 426. BD*(   2) C   1 - C   6        /429. BD*(   1) C   2 - C   4            0.68    0.30    0.038
 426. BD*(   2) C   1 - C   6        /437. BD*(   2) C   7 - C   8           32.21    0.02    0.061
 426. BD*(   2) C   1 - C   6        /444. BD*(   2) C  10 - C  11           34.62    0.02    0.066
 437. BD*(   2) C   7 - C   8        /223. RY*(   6) C   7                    0.50    1.41    0.078
 437. BD*(   2) C   7 - C   8        /248. RY*(   5) C   8                    1.10    0.54    0.071
 444. BD*(   2) C  10 - C  11        /300. RY*(   5) C  10                    0.93    0.58    0.069


 Natural Bond Orbitals (Summary):

                                                            Principal Delocalizations
           NBO                        Occupancy    Energy   (geminal,vicinal,remote)
 ====================================================================================
 Molecular unit  1  (C10H10OBr)
     1. BD (   1) C   1 - C   2          1.98579    -0.86418  434(v),433(v),193(v),140(v)
                                                    425(g)
     2. BD (   1) C   1 - C   6          1.98382    -0.89950  435(g),434(g),436(v),443(v)
                                                    429(v),84(v),218(v),322(v)
                                                    424(g)
     3. BD (   2) C   1 - C   6          1.54649    -0.37154  437(v),444(v),426(g),428(v)
                                                    221(v),325(v),57(r),429(v)
     4. BD (   1) C   1 - H  13          1.97197    -0.68384  435(v),430(v),193(v),192(v)
                                                    85(v),84(v),87(v),194(v)
     5. BD (   1) C   2 -Br   3          1.90499    -0.66986  426(v),432(v),425(v),142(v)
                                                    59(v),60(v)
     6. BD (   1) C   2 - C   4          1.97449    -0.77749  425(v),426(v),449(v),166(v)
                                                    348(v),58(v)
     7. BD (   1) C   2 - H  14          1.97819    -0.68356  427(v),431(v),58(v),432(v)
                                                    428(g),141(v)
     8. BD (   1) C   4 - O   5          1.99703    -1.24286  140(g),430(v)
     9. BD (   2) C   4 - O   5          1.98160    -0.51544  428(v),448(v),447(v)
    10. BD (   1) C   4 - C  12          1.98980    -0.78839  424(v),166(v),84(v)
    11. BD (   1) C   6 - C   7          1.97708    -0.83357  424(v),440(v),446(v),425(g)
                                                    435(g),245(v),58(v),436(g)
                                                    244(v),322(v)
    12. BD (   1) C   6 - C  11          1.97884    -0.83917  445(v),425(g),427(v),438(v)
                                                    434(g),443(g),297(v),60(v)
                                                    296(v),218(v)
    13. BD (   1) C   7 - C   8          1.98548    -0.86874  425(v),442(v),193(v),439(g)
                                                    434(g),270(v),271(v),440(g)
                                                    438(g),192(v)
    14. BD (   2) C   7 - C   8          1.62971    -0.36129  57(v),426(v),274(v),437(g)
    15. BD (   1) C   7 - H  15          1.97736    -0.66222  435(v),439(v),244(v),193(v)
                                                    192(v),194(v),389(r),424(r)
                                                    440(v),247(v)
    16. BD (   1) C   8 - C   9          1.98529    -0.85156  438(v),445(v),436(g),219(v)
                                                    296(v),297(v),441(g),218(v)
                                                    440(g)
    17. BD (   1) C   8 - H  16          1.97735    -0.64784  434(v),441(v),218(v),270(v)
                                                    442(v),436(g),438(v)
    18. BD (   1) C   9 - C  10          1.98530    -0.84922  446(v),440(v),443(g),323(v)
                                                    244(v),439(g),245(v),322(v)
    19. BD (   1) C   9 - H  17          1.97936    -0.65751  443(v),436(v),296(v),244(v)
                                                    445(v),440(v),246(v),298(v)
                                                    399(r)
    20. BD (   1) C  10 - C  11          1.98505    -0.86980  425(v),442(v),192(v),441(g)
                                                    435(g),270(v),271(v),445(g)
                                                    446(g)
    21. BD (   2) C  10 - C  11          1.65451    -0.36528  57(v),426(v),274(v),444(g)
    22. BD (   1) C  10 - H  18          1.97761    -0.64799  435(v),439(v),322(v),270(v)
                                                    446(v),442(v),443(g)
    23. BD (   1) C  11 - H  19          1.97729    -0.66606  434(v),441(v),296(v),192(v)
                                                    195(v),399(r),445(v),299(v)
                                                    443(g)
    24. BD (   1) C  12 - H  20          1.97066    -0.62465  432(v),431(v)
    25. BD (   1) C  12 - H  21          1.95733    -0.61878  432(v),431(v)
    26. BD (   1) C  12 - H  22          1.98513    -0.62514  429(v)
    27. CR (   1) C   1                  1.99916   -10.26874  192(v),85(v),435(v),197(v)
                                                    434(v)
    28. CR (   1) C   2                  1.99907   -10.28162  428(g),141(v),60(v),425(v)
                                                    59(v)
    29. CR (   1)Br   3                  2.00000  -471.85354   
    30. CR (   2)Br   3                  2.00000   -70.96233   
    31. CR (   3)Br   3                  1.99986   -11.71688   
    32. CR (   4)Br   3                  2.00000   -56.43171   
    33. CR (   5)Br   3                  1.99997    -6.76483   
    34. CR (   6)Br   3                  2.00000   -56.43446   
    35. CR (   7)Br   3                  1.99991    -6.77216   
    36. CR (   8)Br   3                  2.00000   -56.43130   
    37. CR (   9)Br   3                  1.99999    -6.76364   
    38. CR (  10)Br   3                  1.99989    -2.79276   
    39. CR (  11)Br   3                  1.99998    -2.78452   
    40. CR (  12)Br   3                  1.99991    -2.79168   
    41. CR (  13)Br   3                  1.99986    -2.79269   
    42. CR (  14)Br   3                  1.99995    -2.78652   
    43. CR (   1) C   4                  1.99943   -10.30531  169(v),352(v)
    44. CR (   1) O   5                  1.99976   -18.99480  140(v),433(v)
    45. CR (   1) C   6                  1.99908   -10.21281  219(v),323(v),424(v),60(v)
                                                    58(v)
    46. CR (   1) C   7                  1.99918   -10.21167  245(v),192(v),425(v),435(v)
                                                    246(v)
    47. CR (   1) C   8                  1.99921   -10.18803  271(v),219(v),390(v)
    48. CR (   1) C   9                  1.99926   -10.21521  245(v),297(v),395(v),247(v)
                                                    299(v)
    49. CR (   1) C  10                  1.99922   -10.18971  271(v),323(v),400(v),435(v)
    50. CR (   1) C  11                  1.99915   -10.21053  193(v),297(v),425(v),434(v)
                                                    441(v)
    51. CR (   1) C  12                  1.99936   -10.16910  141(v),431(v)
    52. LP (   1)Br   3                  1.99655    -1.03005  426(r),88(v),425(r)
    53. LP (   2)Br   3                  1.97519    -0.42624  429(v),430(v),432(r),86(v)
                                                    84(v)
    54. LP (   3)Br   3                  1.91675    -0.41725  426(r),424(v),432(r),85(v)
                                                    429(v),430(v)
    55. LP (   1) O   5                  1.97651    -0.84795  140(v),433(v),429(v),167(g)
    56. LP (   2) O   5                  1.87375    -0.39272  429(v),433(v),143(v),141(v)
                                                    425(r)
    57. LP*(   1) C   9                  0.79458    -0.15041  437(v),444(v),274(g),248(v)
                                                    300(v)
    58. RY*(   1) C   1                  0.00604     1.10121   
    59. RY*(   2) C   1                  0.00350     0.76337   
    60. RY*(   3) C   1                  0.00320     0.93479   
    61. RY*(   4) C   1                  0.00120     1.27687   
    62. RY*(   5) C   1                  0.00096     1.61495   
    63. RY*(   6) C   1                  0.00042     1.13189   
    64. RY*(   7) C   1                  0.00036     1.37411   
    65. RY*(   8) C   1                  0.00026     2.36050   
    66. RY*(   9) C   1                  0.00019     2.61190   
    67. RY*(  10) C   1                  0.00015     1.79710   
    68. RY*(  11) C   1                  0.00012     1.93689   
    69. RY*(  12) C   1                  0.00008     2.78220   
    70. RY*(  13) C   1                  0.00005     2.66040   
    71. RY*(  14) C   1                  0.00003     3.43110   
    72. RY*(  15) C   1                  0.00003     3.28032   
    73. RY*(  16) C   1                  0.00000     3.21889   
    74. RY*(  17) C   1                  0.00000    20.00120   
    75. RY*(  18) C   1                  0.00000     3.13938   
    76. RY*(  19) C   1                  0.00000     3.14034   
    77. RY*(  20) C   1                  0.00001     3.74601   
    78. RY*(  21) C   1                  0.00001     3.77101   
    79. RY*(  22) C   1                  0.00000     3.21062   
    80. RY*(  23) C   1                  0.00001     3.64824   
    81. RY*(  24) C   1                  0.00001     3.46905   
    82. RY*(  25) C   1                  0.00000     3.93235   
    83. RY*(  26) C   1                  0.00000     3.56592   
    84. RY*(   1) C   2                  0.00575     0.90655   
    85. RY*(   2) C   2                  0.00442     1.02076   
    86. RY*(   3) C   2                  0.00299     1.05033   
    87. RY*(   4) C   2                  0.00193     1.49199   
    88. RY*(   5) C   2                  0.00122     1.39127   
    89. RY*(   6) C   2                  0.00074     1.41593   
    90. RY*(   7) C   2                  0.00051     1.33264   
    91. RY*(   8) C   2                  0.00035     1.26715   
    92. RY*(   9) C   2                  0.00029     1.46994   
    93. RY*(  10) C   2                  0.00021     1.94556   
    94. RY*(  11) C   2                  0.00020     2.22388   
    95. RY*(  12) C   2                  0.00012     1.80238   
    96. RY*(  13) C   2                  0.00010     1.65173   
    97. RY*(  14) C   2                  0.00005     3.27352   
    98. RY*(  15) C   2                  0.00003     2.96720   
    99. RY*(  16) C   2                  0.00003     3.57712   
   100. RY*(  17) C   2                  0.00001     3.18457   
   101. RY*(  18) C   2                  0.00000    20.52353   
   102. RY*(  19) C   2                  0.00001     3.39843   
   103. RY*(  20) C   2                  0.00000     3.66860   
   104. RY*(  21) C   2                  0.00000     3.30097   
   105. RY*(  22) C   2                  0.00000     3.39406   
   106. RY*(  23) C   2                  0.00000     3.41204   
   107. RY*(  24) C   2                  0.00000     3.39059   
   108. RY*(  25) C   2                  0.00000     3.49719   
   109. RY*(  26) C   2                  0.00000     3.34630   
   110. RY*(   1)Br   3                  0.00158     0.85824   
   111. RY*(   2)Br   3                  0.00128     0.84945   
   112. RY*(   3)Br   3                  0.00033     1.00888   
   113. RY*(   4)Br   3                  0.00030     1.39355   
   114. RY*(   5)Br   3                  0.00017     0.87101   
   115. RY*(   6)Br   3                  0.00014     1.03321   
   116. RY*(   7)Br   3                  0.00010     0.93130   
   117. RY*(   8)Br   3                  0.00006     1.16044   
   118. RY*(   9)Br   3                  0.00002     1.51604   
   119. RY*(  10)Br   3                  0.00001     1.65777   
   120. RY*(  11)Br   3                  0.00001     1.47504   
   121. RY*(  12)Br   3                  0.00001     1.14389   
   122. RY*(  13)Br   3                  0.00000     1.69823   
   123. RY*(  14)Br   3                  0.00001     1.45653   
   124. RY*(  15)Br   3                  0.00000     7.17337   
   125. RY*(  16)Br   3                  0.00000     1.68981   
   126. RY*(  17)Br   3                  0.00000     3.94908   
   127. RY*(  18)Br   3                  0.00001     1.74253   
   128. RY*(  19)Br   3                  0.00000     4.14475   
   129. RY*(  20)Br   3                  0.00000     4.18988   
   130. RY*(  21)Br   3                  0.00000     3.99646   
   131. RY*(  22)Br   3                  0.00001     1.45899   
   132. RY*(  23)Br   3                  0.00000     4.08826   
   133. RY*(  24)Br   3                  0.00000     1.64492   
   134. RY*(  25)Br   3                  0.00000     1.56627   
   135. RY*(  26)Br   3                  0.00000     1.66542   
   136. RY*(  27)Br   3                  0.00000     1.62022   
   137. RY*(  28)Br   3                  0.00000     1.69051   
   138. RY*(  29)Br   3                  0.00000     1.68969   
   139. RY*(  30)Br   3                  0.00000     1.73397   
   140. RY*(   1) C   4                  0.01587     1.13038   
   141. RY*(   2) C   4                  0.00415     1.63402   
   142. RY*(   3) C   4                  0.00209     1.15977   
   143. RY*(   4) C   4                  0.00123     3.05054   
   144. RY*(   5) C   4                  0.00058     2.67007   
   145. RY*(   6) C   4                  0.00050     2.93753   
   146. RY*(   7) C   4                  0.00027     1.66710   
   147. RY*(   8) C   4                  0.00021     2.30132   
   148. RY*(   9) C   4                  0.00014     2.27089   
   149. RY*(  10) C   4                  0.00007     2.79384   
   150. RY*(  11) C   4                  0.00002     2.20367   
   151. RY*(  12) C   4                  0.00000     2.00153   
   152. RY*(  13) C   4                  0.00001     2.13996   
   153. RY*(  14) C   4                  0.00000    20.23115   
   154. RY*(  15) C   4                  0.00000     2.73266   
   155. RY*(  16) C   4                  0.00000     3.45015   
   156. RY*(  17) C   4                  0.00000     2.84915   
   157. RY*(  18) C   4                  0.00000     2.77132   
   158. RY*(  19) C   4                  0.00000     2.73259   
   159. RY*(  20) C   4                  0.00000     3.91628   
   160. RY*(  21) C   4                  0.00000     3.88950   
   161. RY*(  22) C   4                  0.00000     3.75887   
   162. RY*(  23) C   4                  0.00000     3.67375   
   163. RY*(  24) C   4                  0.00000     3.72231   
   164. RY*(  25) C   4                  0.00000     3.39348   
   165. RY*(  26) C   4                  0.00000     3.42549   
   166. RY*(   1) O   5                  0.00252     1.02836   
   167. RY*(   2) O   5                  0.00047     1.71360   
   168. RY*(   3) O   5                  0.00040     1.02830   
   169. RY*(   4) O   5                  0.00022     0.95135   
   170. RY*(   5) O   5                  0.00013     2.45965   
   171. RY*(   6) O   5                  0.00011     2.81967   
   172. RY*(   7) O   5                  0.00007     2.42911   
   173. RY*(   8) O   5                  0.00003     2.73756   
   174. RY*(   9) O   5                  0.00002     2.84535   
   175. RY*(  10) O   5                  0.00002     2.71051   
   176. RY*(  11) O   5                  0.00002     3.54650   
   177. RY*(  12) O   5                  0.00000    42.42970   
   178. RY*(  13) O   5                  0.00000     6.12779   
   179. RY*(  14) O   5                  0.00001     2.91195   
   180. RY*(  15) O   5                  0.00000     6.21310   
   181. RY*(  16) O   5                  0.00000     2.37228   
   182. RY*(  17) O   5                  0.00000     6.17103   
   183. RY*(  18) O   5                  0.00000     6.06435   
   184. RY*(  19) O   5                  0.00000     6.40012   
   185. RY*(  20) O   5                  0.00000     5.53752   
   186. RY*(  21) O   5                  0.00000     5.47351   
   187. RY*(  22) O   5                  0.00000     5.75774   
   188. RY*(  23) O   5                  0.00000     5.40423   
   189. RY*(  24) O   5                  0.00000     5.34347   
   190. RY*(  25) O   5                  0.00000     5.19447   
   191. RY*(  26) O   5                  0.00000     5.18573   
   192. RY*(   1) C   6                  0.00734     1.38977   
   193. RY*(   2) C   6                  0.00608     1.51525   
   194. RY*(   3) C   6                  0.00178     2.19971   
   195. RY*(   4) C   6                  0.00145     1.96845   
   196. RY*(   5) C   6                  0.00114     1.27288   
   197. RY*(   6) C   6                  0.00091     1.35348   
   198. RY*(   7) C   6                  0.00037     2.72257   
   199. RY*(   8) C   6                  0.00032     2.11262   
   200. RY*(   9) C   6                  0.00023     1.84058   
   201. RY*(  10) C   6                  0.00017     2.01030   
   202. RY*(  11) C   6                  0.00014     1.55347   
   203. RY*(  12) C   6                  0.00012     1.83522   
   204. RY*(  13) C   6                  0.00009     3.24137   
   205. RY*(  14) C   6                  0.00006     3.14451   
   206. RY*(  15) C   6                  0.00002     2.85574   
   207. RY*(  16) C   6                  0.00000     1.83346   
   208. RY*(  17) C   6                  0.00000     3.54763   
   209. RY*(  18) C   6                  0.00000     1.22707   
   210. RY*(  19) C   6                  0.00000    21.08654   
   211. RY*(  20) C   6                  0.00001     3.83136   
   212. RY*(  21) C   6                  0.00000     4.10980   
   213. RY*(  22) C   6                  0.00000     3.46651   
   214. RY*(  23) C   6                  0.00001     3.93429   
   215. RY*(  24) C   6                  0.00000     3.54699   
   216. RY*(  25) C   6                  0.00001     3.67272   
   217. RY*(  26) C   6                  0.00000     3.54217   
   218. RY*(   1) C   7                  0.00464     1.52504   
   219. RY*(   2) C   7                  0.00184     1.36342   
   220. RY*(   3) C   7                  0.00126     1.56304   
   221. RY*(   4) C   7                  0.00095     1.04387   
   222. RY*(   5) C   7                  0.00081     1.68153   
   223. RY*(   6) C   7                  0.00056     1.44949   
   224. RY*(   7) C   7                  0.00031     1.67478   
   225. RY*(   8) C   7                  0.00013     1.97646   
   226. RY*(   9) C   7                  0.00008     1.94798   
   227. RY*(  10) C   7                  0.00005     3.75626   
   228. RY*(  11) C   7                  0.00004     2.72602   
   229. RY*(  12) C   7                  0.00003     3.16547   
   230. RY*(  13) C   7                  0.00001     2.46104   
   231. RY*(  14) C   7                  0.00001     1.49487   
   232. RY*(  15) C   7                  0.00000     2.90808   
   233. RY*(  16) C   7                  0.00000     1.62439   
   234. RY*(  17) C   7                  0.00001     3.57529   
   235. RY*(  18) C   7                  0.00000     2.56964   
   236. RY*(  19) C   7                  0.00000     3.21862   
   237. RY*(  20) C   7                  0.00001     3.67171   
   238. RY*(  21) C   7                  0.00000    20.98320   
   239. RY*(  22) C   7                  0.00000     3.30022   
   240. RY*(  23) C   7                  0.00000     3.70214   
   241. RY*(  24) C   7                  0.00000     3.45712   
   242. RY*(  25) C   7                  0.00000     3.65217   
   243. RY*(  26) C   7                  0.00000     3.45837   
   244. RY*(   1) C   8                  0.00485     1.63718   
   245. RY*(   2) C   8                  0.00211     1.50829   
   246. RY*(   3) C   8                  0.00088     1.51801   
   247. RY*(   4) C   8                  0.00084     1.22892   
   248. RY*(   5) C   8                  0.00067     0.58427   
   249. RY*(   6) C   8                  0.00020     2.93881   
   250. RY*(   7) C   8                  0.00016     1.72721   
   251. RY*(   8) C   8                  0.00012     1.91481   
   252. RY*(   9) C   8                  0.00006     2.35440   
   253. RY*(  10) C   8                  0.00005     2.11544   
   254. RY*(  11) C   8                  0.00003     3.27578   
   255. RY*(  12) C   8                  0.00000    21.13330   
   256. RY*(  13) C   8                  0.00001     2.52852   
   257. RY*(  14) C   8                  0.00000     1.73803   
   258. RY*(  15) C   8                  0.00000     2.61901   
   259. RY*(  16) C   8                  0.00001     2.21715   
   260. RY*(  17) C   8                  0.00000     3.55238   
   261. RY*(  18) C   8                  0.00000     1.33766   
   262. RY*(  19) C   8                  0.00000     1.47407   
   263. RY*(  20) C   8                  0.00000     3.85376   
   264. RY*(  21) C   8                  0.00000     3.89828   
   265. RY*(  22) C   8                  0.00000     3.47685   
   266. RY*(  23) C   8                  0.00000     3.72564   
   267. RY*(  24) C   8                  0.00000     3.38275   
   268. RY*(  25) C   8                  0.00000     3.58900   
   269. RY*(  26) C   8                  0.00000     3.44511   
   270. RY*(   1) C   9                  0.00475     1.57410   
   271. RY*(   2) C   9                  0.00199     1.55458   
   272. RY*(   3) C   9                  0.00081     1.27050   
   273. RY*(   4) C   9                  0.00068     1.62330   
   274. RY*(   5) C   9                  0.00043     0.57325   
   275. RY*(   6) C   9                  0.00030     3.18417   
   276. RY*(   7) C   9                  0.00015     1.85519   
   277. RY*(   8) C   9                  0.00009     1.84587   
   278. RY*(   9) C   9                  0.00006     2.92333   
   279. RY*(  10) C   9                  0.00004     3.01263   
   280. RY*(  11) C   9                  0.00004     2.15600   
   281. RY*(  12) C   9                  0.00000     1.46404   
   282. RY*(  13) C   9                  0.00000    21.29798   
   283. RY*(  14) C   9                  0.00000     1.29947   
   284. RY*(  15) C   9                  0.00001     2.02159   
   285. RY*(  16) C   9                  0.00000     1.30772   
   286. RY*(  17) C   9                  0.00000     3.48411   
   287. RY*(  18) C   9                  0.00000     2.88175   
   288. RY*(  19) C   9                  0.00001     2.88268   
   289. RY*(  20) C   9                  0.00000     3.66491   
   290. RY*(  21) C   9                  0.00000     3.82416   
   291. RY*(  22) C   9                  0.00000     3.54026   
   292. RY*(  23) C   9                  0.00000     3.42562   
   293. RY*(  24) C   9                  0.00000     3.47490   
   294. RY*(  25) C   9                  0.00000     3.34078   
   295. RY*(  26) C   9                  0.00000     3.20379   
   296. RY*(   1) C  10                  0.00489     1.61876   
   297. RY*(   2) C  10                  0.00215     1.46965   
   298. RY*(   3) C  10                  0.00091     1.36758   
   299. RY*(   4) C  10                  0.00079     1.51010   
   300. RY*(   5) C  10                  0.00067     0.61664   
   301. RY*(   6) C  10                  0.00020     3.03997   
   302. RY*(   7) C  10                  0.00014     1.70079   
   303. RY*(   8) C  10                  0.00012     1.83954   
   304. RY*(   9) C  10                  0.00007     2.65234   
   305. RY*(  10) C  10                  0.00005     2.04337   
   306. RY*(  11) C  10                  0.00003     3.33656   
   307. RY*(  12) C  10                  0.00001     2.62496   
   308. RY*(  13) C  10                  0.00000     1.20195   
   309. RY*(  14) C  10                  0.00000     1.55427   
   310. RY*(  15) C  10                  0.00000     2.91212   
   311. RY*(  16) C  10                  0.00001     2.28888   
   312. RY*(  17) C  10                  0.00000     3.22048   
   313. RY*(  18) C  10                  0.00000    21.18993   
   314. RY*(  19) C  10                  0.00000     1.51135   
   315. RY*(  20) C  10                  0.00000     3.63730   
   316. RY*(  21) C  10                  0.00000     4.04844   
   317. RY*(  22) C  10                  0.00000     3.32137   
   318. RY*(  23) C  10                  0.00000     3.34668   
   319. RY*(  24) C  10                  0.00000     3.49065   
   320. RY*(  25) C  10                  0.00000     3.74276   
   321. RY*(  26) C  10                  0.00000     3.51303   
   322. RY*(   1) C  11                  0.00434     1.56302   
   323. RY*(   2) C  11                  0.00197     1.40695   
   324. RY*(   3) C  11                  0.00111     1.54790   
   325. RY*(   4) C  11                  0.00099     0.84840   
   326. RY*(   5) C  11                  0.00074     1.61521   
   327. RY*(   6) C  11                  0.00053     1.63208   
   328. RY*(   7) C  11                  0.00035     1.70272   
   329. RY*(   8) C  11                  0.00013     2.08645   
   330. RY*(   9) C  11                  0.00012     1.84131   
   331. RY*(  10) C  11                  0.00006     3.50327   
   332. RY*(  11) C  11                  0.00004     1.97980   
   333. RY*(  12) C  11                  0.00004     2.95055   
   334. RY*(  13) C  11                  0.00001     3.23652   
   335. RY*(  14) C  11                  0.00000     1.39461   
   336. RY*(  15) C  11                  0.00001     2.82007   
   337. RY*(  16) C  11                  0.00000     2.61186   
   338. RY*(  17) C  11                  0.00001     3.18863   
   339. RY*(  18) C  11                  0.00000     2.62052   
   340. RY*(  19) C  11                  0.00000    21.20613   
   341. RY*(  20) C  11                  0.00001     3.05684   
   342. RY*(  21) C  11                  0.00001     3.99314   
   343. RY*(  22) C  11                  0.00000     3.46948   
   344. RY*(  23) C  11                  0.00000     3.31008   
   345. RY*(  24) C  11                  0.00000     3.36929   
   346. RY*(  25) C  11                  0.00000     3.56388   
   347. RY*(  26) C  11                  0.00000     3.45171   
   348. RY*(   1) C  12                  0.00138     1.20360   
   349. RY*(   2) C  12                  0.00079     1.44636   
   350. RY*(   3) C  12                  0.00056     1.30565   
   351. RY*(   4) C  12                  0.00027     1.38245   
   352. RY*(   5) C  12                  0.00017     1.37183   
   353. RY*(   6) C  12                  0.00009     1.64691   
   354. RY*(   7) C  12                  0.00006     1.45816   
   355. RY*(   8) C  12                  0.00002     1.66460   
   356. RY*(   9) C  12                  0.00002     1.57631   
   357. RY*(  10) C  12                  0.00002     1.32743   
   358. RY*(  11) C  12                  0.00002     1.99338   
   359. RY*(  12) C  12                  0.00002     2.05656   
   360. RY*(  13) C  12                  0.00000     3.22021   
   361. RY*(  14) C  12                  0.00000    20.99278   
   362. RY*(  15) C  12                  0.00000     2.95319   
   363. RY*(  16) C  12                  0.00000     3.18611   
   364. RY*(  17) C  12                  0.00000     3.00104   
   365. RY*(  18) C  12                  0.00000     1.49502   
   366. RY*(  19) C  12                  0.00000     3.00863   
   367. RY*(  20) C  12                  0.00000     3.32593   
   368. RY*(  21) C  12                  0.00000     3.19848   
   369. RY*(  22) C  12                  0.00000     3.21717   
   370. RY*(  23) C  12                  0.00000     3.29914   
   371. RY*(  24) C  12                  0.00000     3.26153   
   372. RY*(  25) C  12                  0.00000     3.34664   
   373. RY*(  26) C  12                  0.00000     3.45795   
   374. RY*(   1) H  13                  0.00112     1.49961   
   375. RY*(   2) H  13                  0.00014     2.68455   
   376. RY*(   3) H  13                  0.00012     1.49333   
   377. RY*(   4) H  13                  0.00009     2.23567   
   378. RY*(   5) H  13                  0.00002     3.10969   
   379. RY*(   1) H  14                  0.00072     1.41240   
   380. RY*(   2) H  14                  0.00021     2.28127   
   381. RY*(   3) H  14                  0.00012     2.34558   
   382. RY*(   4) H  14                  0.00011     1.87553   
   383. RY*(   5) H  14                  0.00002     3.06484   
   384. RY*(   1) H  15                  0.00039     1.50821   
   385. RY*(   2) H  15                  0.00017     1.46306   
   386. RY*(   3) H  15                  0.00012     2.77717   
   387. RY*(   4) H  15                  0.00009     2.20779   
   388. RY*(   5) H  15                  0.00002     3.09272   
   389. RY*(   1) H  16                  0.00029     1.00065   
   390. RY*(   2) H  16                  0.00019     1.80249   
   391. RY*(   3) H  16                  0.00010     2.20949   
   392. RY*(   4) H  16                  0.00007     2.80036   
   393. RY*(   5) H  16                  0.00002     3.15090   
   394. RY*(   1) H  17                  0.00024     0.95907   
   395. RY*(   2) H  17                  0.00017     1.81669   
   396. RY*(   3) H  17                  0.00009     2.21648   
   397. RY*(   4) H  17                  0.00008     2.79030   
   398. RY*(   5) H  17                  0.00002     3.13596   
   399. RY*(   1) H  18                  0.00030     0.97057   
   400. RY*(   2) H  18                  0.00019     1.82535   
   401. RY*(   3) H  18                  0.00009     2.20787   
   402. RY*(   4) H  18                  0.00007     2.81101   
   403. RY*(   5) H  18                  0.00002     3.15013   
   404. RY*(   1) H  19                  0.00057     1.56027   
   405. RY*(   2) H  19                  0.00014     1.55815   
   406. RY*(   3) H  19                  0.00010     2.21641   
   407. RY*(   4) H  19                  0.00011     2.71315   
   408. RY*(   5) H  19                  0.00002     3.12894   
   409. RY*(   1) H  20                  0.00022     1.17475   
   410. RY*(   2) H  20                  0.00012     2.04706   
   411. RY*(   3) H  20                  0.00008     1.77580   
   412. RY*(   4) H  20                  0.00006     2.14601   
   413. RY*(   5) H  20                  0.00001     3.02083   
   414. RY*(   1) H  21                  0.00025     1.74996   
   415. RY*(   2) H  21                  0.00011     2.06169   
   416. RY*(   3) H  21                  0.00007     1.95707   
   417. RY*(   4) H  21                  0.00004     1.31090   
   418. RY*(   5) H  21                  0.00001     2.96945   
   419. RY*(   1) H  22                  0.00039     1.54466   
   420. RY*(   2) H  22                  0.00012     2.21864   
   421. RY*(   3) H  22                  0.00009     1.53000   
   422. RY*(   4) H  22                  0.00007     1.82297   
   423. RY*(   5) H  22                  0.00001     3.03454   
   424. BD*(   1) C   1 - C   2          0.01679     0.41127   
   425. BD*(   1) C   1 - C   6          0.01834     0.54370   
   426. BD*(   2) C   1 - C   6          0.13487     0.01686  444(v),437(v),428(v)
   427. BD*(   1) C   1 - H  13          0.01483     0.43460   
   428. BD*(   1) C   2 -Br   3          0.02627     0.05308   
   429. BD*(   1) C   2 - C   4          0.09892     0.31876   
   430. BD*(   1) C   2 - H  14          0.02042     0.39733   
   431. BD*(   1) C   4 - O   5          0.01370     0.62726   
   432. BD*(   2) C   4 - O   5          0.09532     0.04082   
   433. BD*(   1) C   4 - C  12          0.05214     0.40589   
   434. BD*(   1) C   6 - C   7          0.02278     0.50159   
   435. BD*(   1) C   6 - C  11          0.02775     0.50464   
   436. BD*(   1) C   7 - C   8          0.01125     0.59004   
   437. BD*(   2) C   7 - C   8          0.18679     0.04030  426(v),57(v),444(r),248(g)
                                                    223(g)
   438. BD*(   1) C   7 - H  15          0.01045     0.44251   
   439. BD*(   1) C   8 - C   9          0.01388     0.55619   
   440. BD*(   1) C   8 - H  16          0.01253     0.44915   
   441. BD*(   1) C   9 - C  10          0.01401     0.55020   
   442. BD*(   1) C   9 - H  17          0.01008     0.45095   
   443. BD*(   1) C  10 - C  11          0.01113     0.59340   
   444. BD*(   2) C  10 - C  11          0.17797     0.04144  426(v),57(v),437(r),300(g)
   445. BD*(   1) C  10 - H  18          0.01235     0.44859   
   446. BD*(   1) C  11 - H  19          0.01111     0.44237   
   447. BD*(   1) C  12 - H  20          0.00469     0.41345   
   448. BD*(   1) C  12 - H  21          0.00451     0.40518   
   449. BD*(   1) C  12 - H  22          0.00392     0.42650   
       -------------------------------
              Total Lewis  110.02743  ( 98.2388%)
        Valence non-Lewis    1.82138  (  1.6262%)
        Rydberg non-Lewis    0.15119  (  0.1350%)
       -------------------------------
            Total unit  1  112.00000  (100.0000%)
           Charge unit  1    1.00000
   1 Symmetry operations used in ECPInt.
 ECPInt:  NShTT=   15753 NPrTT=   51378 LenC2=   14550 LenP2D=   35088.
 LDataN:  DoStor=T MaxTD1= 7 Len=  274
 D1PCM: C-PCM CHGder 1st derivatives, ID1Alg=3 FixD1E=F DoIter=F DoCFld=F I1PDM=0.
 Calling FoFJK, ICntrl=      2127 FMM=F ISym2X=0 I1Cent= 0 IOpClX= 0 NMat=1 NMatS=1 NMatT=0.
 ***** Axes restored to original set *****
 -------------------------------------------------------------------
 Center     Atomic                   Forces (Hartrees/Bohr)
 Number     Number              X              Y              Z
 -------------------------------------------------------------------
      1        6          -0.003136478   -0.006947352   -0.001625906
      2        6          -0.001928980    0.010387213   -0.000888870
      3       35           0.003072608   -0.007099819    0.003318201
      4        6           0.006991652   -0.002217598   -0.010627154
      5        8          -0.011305966    0.000482430    0.011035097
      6        6           0.002373291    0.002381638   -0.001036683
      7        6          -0.001979559   -0.000995723    0.002177007
      8        6          -0.000449732    0.000194802    0.001021878
      9        6           0.002904310    0.003246881    0.000516006
     10        6           0.000923174    0.000917126   -0.000404961
     11        6          -0.000700602   -0.002207350   -0.002633144
     12        6           0.000338814   -0.000364625    0.002560279
     13        1          -0.001409198   -0.000710180    0.002236101
     14        1           0.002056981    0.000747776   -0.003474017
     15        1          -0.002040897   -0.001087379    0.001749356
     16        1          -0.000027865    0.001342724    0.002655777
     17        1           0.001830502    0.002091410    0.000594621
     18        1           0.001945761    0.000951904   -0.001964877
     19        1           0.000134377   -0.001442771   -0.002435537
     20        1           0.002339575   -0.001139764   -0.001187353
     21        1           0.000706436    0.002416091   -0.001554662
     22        1          -0.002638202   -0.000947433   -0.000031158
 -------------------------------------------------------------------
 Cartesian Forces:  Max     0.011305966 RMS     0.003514395

 GradGradGradGradGradGradGradGradGradGradGradGradGradGradGradGradGradGrad
 Berny optimization.
 FormGI is forming the generalized inverse of G from B-inverse, IUseBI=4.
 Internal  Forces:  Max     0.015801274 RMS     0.002535154
 Search for a local minimum.
 Step number   1 out of a maximum of  114
 All quantities printed in internal units (Hartrees-Bohrs-Radians)
 Mixed Optimization -- RFO/linear search
 Second derivative matrix not updated -- first step.
 ITU=  0
     Eigenvalues ---    0.00230   0.00577   0.00884   0.01263   0.01676
     Eigenvalues ---    0.01754   0.01921   0.02015   0.02061   0.02067
     Eigenvalues ---    0.02181   0.02186   0.02257   0.02269   0.02287
     Eigenvalues ---    0.04698   0.07303   0.07771   0.08141   0.12294
     Eigenvalues ---    0.14175   0.15999   0.16000   0.16000   0.16000
     Eigenvalues ---    0.16000   0.16000   0.16000   0.16000   0.16000
     Eigenvalues ---    0.17950   0.22000   0.22000   0.22000   0.22651
     Eigenvalues ---    0.23457   0.24996   0.24997   0.25000   0.27607
     Eigenvalues ---    0.33331   0.33855   0.34239   0.34763   0.34791
     Eigenvalues ---    0.34947   0.35211   0.35261   0.35425   0.35429
     Eigenvalues ---    0.35453   0.36658   0.38762   0.40102   0.43790
     Eigenvalues ---    0.44447   0.47763   0.47795   0.50205   1.00192
 RFO step:  Lambda=-1.71769790D-03 EMin= 2.30000000D-03
 Linear search not attempted -- first point.
 Iteration  1 RMS(Cart)=  0.01739788 RMS(Int)=  0.00012579
 Iteration  2 RMS(Cart)=  0.00020738 RMS(Int)=  0.00001586
 Iteration  3 RMS(Cart)=  0.00000002 RMS(Int)=  0.00001586
 Variable       Old X    -DE/DX   Delta X   Delta X   Delta X     New X
                                 (Linear)    (Quad)   (Total)
    R1        2.76365   0.00045   0.00000   0.00123   0.00123   2.76488
    R2        2.62158  -0.00724   0.00000  -0.01510  -0.01510   2.60647
    R3        2.06015  -0.00271   0.00000  -0.00774  -0.00774   2.05241
    R4        3.77663  -0.00835   0.00000  -0.05821  -0.05821   3.71842
    R5        2.93006  -0.00377   0.00000  -0.01358  -0.01358   2.91648
    R6        2.05761  -0.00406   0.00000  -0.01157  -0.01157   2.04604
    R7        2.28562  -0.01580   0.00000  -0.01574  -0.01574   2.26988
    R8        2.81775  -0.00008   0.00000  -0.00023  -0.00023   2.81752
    R9        2.70196  -0.00480   0.00000  -0.01148  -0.01148   2.69048
   R10        2.69973  -0.00442   0.00000  -0.01056  -0.01056   2.68917
   R11        2.59859  -0.00539   0.00000  -0.01071  -0.01071   2.58789
   R12        2.05253  -0.00288   0.00000  -0.00813  -0.00813   2.04440
   R13        2.64550  -0.00565   0.00000  -0.01246  -0.01246   2.63305
   R14        2.04983  -0.00297   0.00000  -0.00835  -0.00835   2.04148
   R15        2.65368  -0.00510   0.00000  -0.01147  -0.01147   2.64221
   R16        2.05333  -0.00284   0.00000  -0.00803  -0.00803   2.04530
   R17        2.59483  -0.00617   0.00000  -0.01223  -0.01223   2.58260
   R18        2.04990  -0.00293   0.00000  -0.00822  -0.00822   2.04168
   R19        2.04945  -0.00283   0.00000  -0.00793  -0.00793   2.04152
   R20        2.06929  -0.00276   0.00000  -0.00801  -0.00801   2.06128
   R21        2.07575  -0.00291   0.00000  -0.00854  -0.00854   2.06721
   R22        2.06061  -0.00279   0.00000  -0.00798  -0.00798   2.05263
    A1        2.21702   0.00149   0.00000   0.00675   0.00675   2.22377
    A2        2.00081  -0.00099   0.00000  -0.00488  -0.00488   1.99592
    A3        2.06530  -0.00050   0.00000  -0.00181  -0.00181   2.06348
    A4        1.72284   0.00134   0.00000   0.01309   0.01311   1.73595
    A5        1.99673  -0.00137   0.00000  -0.00553  -0.00561   1.99113
    A6        2.03973  -0.00024   0.00000  -0.00794  -0.00801   2.03172
    A7        1.84621   0.00081   0.00000   0.01035   0.01035   1.85657
    A8        1.85307  -0.00078   0.00000  -0.00279  -0.00276   1.85031
    A9        1.96903   0.00054   0.00000  -0.00207  -0.00216   1.96686
   A10        2.09154  -0.00146   0.00000  -0.00580  -0.00580   2.08573
   A11        2.00460   0.00187   0.00000   0.00741   0.00741   2.01202
   A12        2.18693  -0.00040   0.00000  -0.00161  -0.00161   2.18532
   A13        2.04689   0.00047   0.00000   0.00161   0.00161   2.04850
   A14        2.15097  -0.00008   0.00000  -0.00057  -0.00057   2.15040
   A15        2.08523  -0.00038   0.00000  -0.00103  -0.00104   2.08420
   A16        2.09578   0.00026   0.00000   0.00152   0.00152   2.09730
   A17        2.07614   0.00017   0.00000   0.00112   0.00112   2.07726
   A18        2.11125  -0.00043   0.00000  -0.00263  -0.00263   2.10862
   A19        2.08357  -0.00075   0.00000  -0.00361  -0.00361   2.07996
   A20        2.10405   0.00035   0.00000   0.00161   0.00161   2.10566
   A21        2.09556   0.00041   0.00000   0.00200   0.00200   2.09756
   A22        2.12191   0.00123   0.00000   0.00499   0.00499   2.12689
   A23        2.08227  -0.00064   0.00000  -0.00262  -0.00262   2.07965
   A24        2.07901  -0.00060   0.00000  -0.00237  -0.00237   2.07664
   A25        2.09325  -0.00071   0.00000  -0.00362  -0.00362   2.08963
   A26        2.09037   0.00038   0.00000   0.00193   0.00193   2.09230
   A27        2.09957   0.00034   0.00000   0.00169   0.00169   2.10126
   A28        2.08658   0.00036   0.00000   0.00177   0.00177   2.08836
   A29        2.10410  -0.00003   0.00000   0.00006   0.00006   2.10416
   A30        2.09248  -0.00033   0.00000  -0.00182  -0.00182   2.09066
   A31        1.93625  -0.00017   0.00000  -0.00105  -0.00106   1.93519
   A32        1.88397   0.00039   0.00000   0.00367   0.00367   1.88764
   A33        1.92595   0.00018   0.00000  -0.00023  -0.00023   1.92572
   A34        1.86432   0.00038   0.00000   0.00509   0.00508   1.86941
   A35        1.93714  -0.00042   0.00000  -0.00484  -0.00485   1.93229
   A36        1.91439  -0.00034   0.00000  -0.00227  -0.00227   1.91212
    D1       -1.80917   0.00068   0.00000   0.01920   0.01921  -1.78997
    D2        2.52244  -0.00052   0.00000   0.00200   0.00203   2.52447
    D3        0.16608   0.00049   0.00000   0.02092   0.02088   0.18696
    D4        1.34424   0.00055   0.00000   0.01217   0.01219   1.35642
    D5       -0.60733  -0.00065   0.00000  -0.00503  -0.00499  -0.61233
    D6       -2.96370   0.00036   0.00000   0.01389   0.01386  -2.94984
    D7       -3.13178  -0.00031   0.00000  -0.01362  -0.01363   3.13777
    D8       -0.00535  -0.00030   0.00000  -0.01309  -0.01309  -0.01844
    D9       -0.00239  -0.00017   0.00000  -0.00639  -0.00638  -0.00878
   D10        3.12404  -0.00017   0.00000  -0.00585  -0.00584   3.11819
   D11        0.30722   0.00083   0.00000  -0.00535  -0.00536   0.30186
   D12       -2.81868   0.00083   0.00000  -0.00560  -0.00560  -2.82428
   D13       -1.56937  -0.00061   0.00000  -0.02425  -0.02425  -1.59363
   D14        1.58791  -0.00061   0.00000  -0.02450  -0.02450   1.56341
   D15        2.69529  -0.00044   0.00000  -0.02607  -0.02606   2.66923
   D16       -0.43061  -0.00045   0.00000  -0.02632  -0.02631  -0.45692
   D17       -0.79456  -0.00042   0.00000  -0.00880  -0.00880  -0.80336
   D18        1.24248   0.00018   0.00000  -0.00108  -0.00107   1.24141
   D19       -2.94889   0.00011   0.00000  -0.00172  -0.00172  -2.95061
   D20        2.36371  -0.00042   0.00000  -0.00902  -0.00902   2.35468
   D21       -1.88243   0.00018   0.00000  -0.00130  -0.00130  -1.88373
   D22        0.20938   0.00011   0.00000  -0.00194  -0.00195   0.20744
   D23        3.11660   0.00005   0.00000   0.00259   0.00259   3.11919
   D24       -0.01878  -0.00001   0.00000  -0.00008  -0.00008  -0.01886
   D25       -0.01043   0.00004   0.00000   0.00207   0.00207  -0.00836
   D26        3.13738  -0.00002   0.00000  -0.00060  -0.00060   3.13678
   D27       -3.11845  -0.00006   0.00000  -0.00287  -0.00287  -3.12132
   D28        0.03029  -0.00010   0.00000  -0.00492  -0.00492   0.02536
   D29        0.00766  -0.00005   0.00000  -0.00229  -0.00230   0.00537
   D30       -3.12678  -0.00009   0.00000  -0.00435  -0.00435  -3.13113
   D31        0.00703  -0.00002   0.00000  -0.00108  -0.00107   0.00596
   D32       -3.13659  -0.00001   0.00000  -0.00076  -0.00076  -3.13735
   D33       -3.14089   0.00004   0.00000   0.00166   0.00165  -3.13924
   D34       -0.00133   0.00005   0.00000   0.00197   0.00197   0.00063
   D35       -0.00094   0.00001   0.00000   0.00031   0.00031  -0.00063
   D36        3.13857   0.00003   0.00000   0.00140   0.00140   3.13997
   D37       -3.14051   0.00000   0.00000   0.00000  -0.00000  -3.14051
   D38       -0.00100   0.00002   0.00000   0.00109   0.00109   0.00009
   D39       -0.00179  -0.00002   0.00000  -0.00055  -0.00055  -0.00234
   D40        3.13801   0.00002   0.00000   0.00122   0.00122   3.13923
   D41       -3.14131  -0.00004   0.00000  -0.00164  -0.00164   3.14024
   D42       -0.00151   0.00000   0.00000   0.00013   0.00013  -0.00138
   D43       -0.00167   0.00003   0.00000   0.00153   0.00153  -0.00014
   D44        3.13283   0.00008   0.00000   0.00358   0.00358   3.13641
   D45       -3.14146  -0.00001   0.00000  -0.00024  -0.00024   3.14148
   D46       -0.00697   0.00004   0.00000   0.00181   0.00181  -0.00516
         Item               Value     Threshold  Converged?
 Maximum Force            0.015801     0.000450     NO 
 RMS     Force            0.002535     0.000300     NO 
 Maximum Displacement     0.059120     0.001800     NO 
 RMS     Displacement     0.017374     0.001200     NO 
 Predicted change in Energy=-8.678529D-04
 GradGradGradGradGradGradGradGradGradGradGradGradGradGradGradGradGradGrad

                          Input orientation:                          
 ---------------------------------------------------------------------
 Center     Atomic      Atomic             Coordinates (Angstroms)
 Number     Number       Type             X           Y           Z
 ---------------------------------------------------------------------
      1          6           0       -0.605987    1.387430    0.575811
      2          6           0       -0.446154    2.171845    1.800493
      3         35           0       -1.334673    3.834886    1.237750
      4          6           0        1.016011    2.546992    2.121765
      5          8           0        1.848415    2.475305    1.258766
      6          6           0       -1.517299    0.379479    0.339213
      7          6           0       -1.487842   -0.242279   -0.941250
      8          6           0       -2.349552   -1.267106   -1.228622
      9          6           0       -3.255856   -1.685249   -0.256414
     10          6           0       -3.310865   -1.088407    1.006801
     11          6           0       -2.455783   -0.066749    1.311423
     12          6           0        1.272422    2.959878    3.531291
     13          1           0        0.088527    1.648639   -0.217287
     14          1           0       -0.988589    1.822869    2.670123
     15          1           0       -0.774825    0.105062   -1.677018
     16          1           0       -2.331234   -1.746989   -2.196316
     17          1           0       -3.937790   -2.494221   -0.484360
     18          1           0       -4.028058   -1.436735    1.735899
     19          1           0       -2.500709    0.398299    2.285494
     20          1           0        0.515719    3.667344    3.872907
     21          1           0        1.193318    2.072530    4.166130
     22          1           0        2.267045    3.386296    3.624732
 ---------------------------------------------------------------------
                    Distance matrix (angstroms):
                    1          2          3          4          5
     1  C    0.000000
     2  C    1.463113   0.000000
     3  Br   2.638027   1.967702   0.000000
     4  C    2.522982   1.543333   2.822387   0.000000
     5  O    2.770196   2.377099   3.461351   1.201167   0.000000
     6  C    1.379287   2.548581   3.574991   3.780643   4.070146
     7  C    2.394806   3.798719   4.625450   4.840597   4.832799
     8  C    3.652747   4.962343   5.757021   6.090932   6.149444
     9  C    4.141952   5.196390   6.032857   6.466564   6.757186
    10  C    3.692139   4.412002   5.310131   5.760307   6.275484
    11  C    2.465260   3.047803   4.060182   4.420594   4.999093
    12  C    3.838733   2.563232   3.580910   1.490967   2.393939
    13  H    1.086086   2.151990   2.987023   2.671784   2.441171
    14  H    2.173047   1.082717   2.493929   2.200789   3.235149
    15  H    2.597731   4.058657   4.766643   4.858072   4.595461
    16  H    4.526119   5.906375   6.628973   6.948968   6.872760
    17  H    5.224183   6.259732   7.056875   7.532985   7.823991
    18  H    4.586097   5.084885   5.940746   6.439068   7.075637
    19  H    2.737036   2.757152   3.777240   4.124440   4.927778
    20  H    4.162580   2.730680   3.224294   2.138218   3.167138
    21  H    4.073972   2.879925   4.251123   2.106176   3.007348
    22  H    4.641734   3.487720   4.344110   2.128010   2.569620
                    6          7          8          9         10
     6  C    0.000000
     7  C    1.423741   0.000000
     8  C    2.421156   1.369451   0.000000
     9  C    2.764138   2.382653   1.393348   0.000000
    10  C    2.411896   2.798973   2.439912   1.398198   0.000000
    11  C    1.423047   2.458100   2.811400   2.391187   1.366655
    12  C    4.962898   6.154388   7.324129   7.511939   6.615753
    13  H    2.121117   2.566054   3.933014   4.722419   4.532734
    14  H    2.792140   4.190001   5.157555   5.100197   4.078619
    15  H    2.166047   1.081847   2.136275   3.373255   3.880561
    16  H    3.407824   2.133226   1.080303   2.149874   3.413702
    17  H    3.846453   3.358904   2.140616   1.082325   2.143106
    18  H    3.399011   3.878988   3.410945   2.151132   1.080408
    19  H    2.180701   3.442110   3.891714   3.372346   2.121723
    20  H    5.237385   6.517324   7.654029   7.741209   6.743477
    21  H    4.985895   6.215488   7.266941   7.312656   6.345120
    22  H    5.844385   6.936421   8.156112   8.443122   7.615092
                   11         12         13         14         15
    11  C    0.000000
    12  C    5.290349   0.000000
    13  H    3.428268   4.144006   0.000000
    14  H    2.751250   2.673307   3.086692   0.000000
    15  H    3.433062   6.282330   2.293211   4.679122   0.000000
    16  H    3.891395   8.242962   4.615419   6.182945   2.474303
    17  H    3.363599   8.545113   5.783238   6.106211   4.264160
    18  H    2.128166   7.116792   5.502794   4.553697   4.960712
    19  H    1.080325   4.727601   3.812008   2.112781   4.331993
    20  H    5.416131   1.090784   4.581195   2.666781   6.719896
    21  H    5.103116   1.093922   4.540329   2.657270   6.472007
    22  H    6.291266   1.086204   4.746209   3.735604   6.937435
                   16         17         18         19         20
    16  H    0.000000
    17  H    2.463772   0.000000
    18  H    4.293925   2.460889   0.000000
    19  H    4.971681   4.254875   2.449939   0.000000
    20  H    8.617169   8.762670   7.159911   4.722856   0.000000
    21  H    8.215346   8.295211   6.744162   4.470533   1.757428
    22  H    9.021053   9.484993   8.152155   5.783871   1.791012
                   21         22
    21  H    0.000000
    22  H    1.781007   0.000000
 Stoichiometry    C10H10BrO(1+)
 Framework group  C1[X(C10H10BrO)]
 Deg. of freedom    60
 Full point group                 C1      NOp   1
 Largest Abelian subgroup         C1      NOp   1
 Largest concise Abelian subgroup C1      NOp   1
                         Standard orientation:                         
 ---------------------------------------------------------------------
 Center     Atomic      Atomic             Coordinates (Angstroms)
 Number     Number       Type             X           Y           Z
 ---------------------------------------------------------------------
      1          6           0        0.190838    0.474924   -0.512468
      2          6           0       -0.972784    0.353606    0.366148
      3         35           0       -1.619480   -1.417669   -0.196189
      4          6           0       -2.107119    1.351320    0.050348
      5          8           0       -2.126681    1.907145   -1.014301
      6          6           0        1.516789    0.298134   -0.176267
      7          6           0        2.481954    0.465497   -1.209459
      8          6           0        3.816337    0.329286   -0.933302
      9          6           0        4.212816    0.018912    0.365887
     10          6           0        3.286309   -0.157169    1.398136
     11          6           0        1.951000   -0.021433    1.140700
     12          6           0       -3.099066    1.554831    1.144700
     13          1           0       -0.048173    0.739085   -1.538468
     14          1           0       -0.769305    0.274478    1.426625
     15          1           0        2.144452    0.703932   -2.209276
     16          1           0        4.555495    0.458463   -1.710486
     17          1           0        5.267414   -0.090165    0.583496
     18          1           0        3.629201   -0.399483    2.393621
     19          1           0        1.234030   -0.162012    1.936497
     20          1           0       -3.412420    0.599585    1.567932
     21          1           0       -2.611642    2.117546    1.946220
     22          1           0       -3.956252    2.112361    0.778324
 ---------------------------------------------------------------------
 Rotational constants (GHZ):           1.1945371           0.3702990           0.3341653
 Standard basis: def2TZVP (5D, 7F)
 There are   511 symmetry adapted cartesian basis functions of A   symmetry.
 There are   449 symmetry adapted basis functions of A   symmetry.
   449 basis functions,   755 primitive gaussians,   511 cartesian basis functions
    56 alpha electrons       56 beta electrons
       nuclear repulsion energy       927.1486145095 Hartrees.
 NAtoms=   22 NActive=   22 NUniq=   22 SFac= 1.00D+00 NAtFMM=   60 NAOKFM=F Big=F
 Integral buffers will be    131072 words long.
 Raffenetti 2 integral format.
 Two-electron integral symmetry is turned on.
 Nuclear repulsion after empirical dispersion term =      927.1355938145 Hartrees.
 ------------------------------------------------------------------------------
 Polarizable Continuum Model (PCM)
 =================================
 Model                : C-PCM.
 Atomic radii         : UFF (Universal Force Field).
 Polarization charges : Total charges.
 Charge compensation  : None.
 Solution method      : On-the-fly selection.
 Cavity type          : Scaled VdW (van der Waals Surface) (Alpha=1.100).
 Cavity algorithm     : GePol (No added spheres)
                        Default sphere list used, NSphG=   22.
                        Lebedev-Laikov grids with approx.  5.0 points / Ang**2.
                        Smoothing algorithm: York/Karplus (Gamma=1.0000).
                        Polarization charges: spherical gaussians, with
                                              point-specific exponents (IZeta= 3).
                        Self-potential: point-specific (ISelfS= 7).
                        Self-field    : sphere-specific E.n sum rule (ISelfD= 2).
 1st derivatives      : Analytical E(r).r(x)/FMM algorithm (CHGder, D1EAlg=3).
                        Cavity 1st derivative terms included.
 Solvent              : DiChloroEthane, Eps=  10.125000 Eps(inf)=   2.087447
 ------------------------------------------------------------------------------
 One-electron integrals computed using PRISM.
   1 Symmetry operations used in ECPInt.
 ECPInt:  NShTT=   15753 NPrTT=   51378 LenC2=   14560 LenP2D=   35149.
 LDataN:  DoStor=T MaxTD1= 6 Len=  172
 NBasis=   449 RedAO= T EigKep=  8.69D-06  NBF=   449
 NBsUse=   449 1.00D-06 EigRej= -1.00D+00 NBFU=   449
 Initial guess from the checkpoint file:  "d2.chk"
 B after Tr=    -0.000000    0.000000   -0.000000
         Rot=    0.999934   -0.011429    0.001072   -0.000852 Ang=  -1.32 deg.
 ExpMin= 9.52D-02 ExpMax= 5.65D+05 ExpMxC= 5.46D+03 IAcc=3 IRadAn=         5 AccDes= 0.00D+00
 Harris functional with IExCor= 4639 and IRadAn=       5 diagonalized for initial guess.
 HarFok:  IExCor= 4639 AccDes= 0.00D+00 IRadAn=         5 IDoV= 1 UseB2=F ITyADJ=14
 ICtDFT=  3500011 ScaDFX=  1.000000  1.000000  1.000000  1.000000
 FoFCou: FMM=F IPFlag=           0 FMFlag=      100000 FMFlg1=           0
         NFxFlg=           0 DoJE=T BraDBF=F KetDBF=T FulRan=T
         wScrn=  0.000000 ICntrl=       500 IOpCl=  0 I1Cent=   200000004 NGrid=           0
         NMat0=    1 NMatS0=      1 NMatT0=    0 NMatD0=    1 NMtDS0=    0 NMtDT0=    0
 Petite list used in FoFCou.
 Requested convergence on RMS density matrix=1.00D-08 within 128 cycles.
 Requested convergence on MAX density matrix=1.00D-06.
 Requested convergence on             energy=1.00D-06.
 No special actions if energy rises.
 Inv3:  Mode=1 IEnd=    11013168.
 Iteration    1 A*A^-1 deviation from unit magnitude is 4.33D-15 for   1887.
 Iteration    1 A*A^-1 deviation from orthogonality  is 1.55D-15 for   1906   1129.
 Iteration    1 A^-1*A deviation from unit magnitude is 4.33D-15 for   1887.
 Iteration    1 A^-1*A deviation from orthogonality  is 1.14D-15 for   1914   1704.
 Error on total polarization charges =  0.01057
 SCF Done:  E(RwB97XD) =  -3036.30943788     A.U. after   12 cycles
            NFock= 12  Conv=0.41D-08     -V/T= 2.0019
   1 Symmetry operations used in ECPInt.
 ECPInt:  NShTT=   15753 NPrTT=   51378 LenC2=   14560 LenP2D=   35149.
 LDataN:  DoStor=T MaxTD1= 7 Len=  274
 D1PCM: C-PCM CHGder 1st derivatives, ID1Alg=3 FixD1E=F DoIter=F DoCFld=F I1PDM=0.
 Calling FoFJK, ICntrl=      2127 FMM=F ISym2X=0 I1Cent= 0 IOpClX= 0 NMat=1 NMatS=1 NMatT=0.
 ***** Axes restored to original set *****
 -------------------------------------------------------------------
 Center     Atomic                   Forces (Hartrees/Bohr)
 Number     Number              X              Y              Z
 -------------------------------------------------------------------
      1        6           0.000015658   -0.002665135   -0.000337299
      2        6          -0.001244144    0.004426507   -0.000126146
      3       35          -0.000498869    0.000358292    0.000358613
      4        6           0.001109791   -0.001829111   -0.001759840
      5        8          -0.000215628    0.000325135    0.001041042
      6        6           0.000950427    0.000971226   -0.000274030
      7        6           0.000063109    0.000133010   -0.000086377
      8        6          -0.000170246   -0.000441283   -0.000653755
      9        6          -0.000024411   -0.000113364   -0.000144532
     10        6          -0.000483983   -0.000176950    0.000652910
     11        6          -0.000278793   -0.000134777    0.000257261
     12        6          -0.000230750   -0.000256092    0.000961064
     13        1           0.000292846    0.000160807    0.000068407
     14        1           0.000320788   -0.001155504    0.000244903
     15        1           0.000111090    0.000036577   -0.000140926
     16        1          -0.000006070   -0.000040736   -0.000057992
     17        1          -0.000165825   -0.000208251   -0.000050913
     18        1          -0.000079452   -0.000069775    0.000022209
     19        1           0.000165173    0.000079090    0.000204865
     20        1           0.000177518    0.000246743   -0.000027608
     21        1           0.000119611    0.000216542   -0.000093879
     22        1           0.000072159    0.000137047   -0.000057977
 -------------------------------------------------------------------
 Cartesian Forces:  Max     0.004426507 RMS     0.000819531

 GradGradGradGradGradGradGradGradGradGradGradGradGradGradGradGradGradGrad
 Berny optimization.
 Using GEDIIS/GDIIS optimizer.
 FormGI is forming the generalized inverse of G from B-inverse, IUseBI=4.
 Internal  Forces:  Max     0.001746696 RMS     0.000410766
 Search for a local minimum.
 Step number   2 out of a maximum of  114
 All quantities printed in internal units (Hartrees-Bohrs-Radians)
 Mixed Optimization -- En-DIIS/RFO-DIIS
 Update second derivatives using D2CorX and points    1    2
 DE= -8.89D-04 DEPred=-8.68D-04 R= 1.02D+00
 TightC=F SS=  1.41D+00  RLast= 1.04D-01 DXNew= 5.0454D-01 3.1154D-01
 Trust test= 1.02D+00 RLast= 1.04D-01 DXMaxT set to 3.12D-01
 ITU=  1  0
 Use linear search instead of GDIIS.
     Eigenvalues ---    0.00229   0.00578   0.00883   0.01264   0.01674
     Eigenvalues ---    0.01753   0.01921   0.02013   0.02061   0.02067
     Eigenvalues ---    0.02180   0.02185   0.02237   0.02269   0.02287
     Eigenvalues ---    0.04473   0.07291   0.07704   0.07837   0.12152
     Eigenvalues ---    0.14644   0.15985   0.16000   0.16000   0.16000
     Eigenvalues ---    0.16000   0.16000   0.16000   0.16000   0.16038
     Eigenvalues ---    0.17967   0.21777   0.22000   0.22003   0.22517
     Eigenvalues ---    0.23446   0.24928   0.24997   0.25186   0.27913
     Eigenvalues ---    0.33224   0.33808   0.34244   0.34766   0.34809
     Eigenvalues ---    0.35038   0.35235   0.35314   0.35409   0.35427
     Eigenvalues ---    0.35499   0.36963   0.39038   0.40094   0.44197
     Eigenvalues ---    0.45496   0.47714   0.47970   0.52173   0.98928
 RFO step:  Lambda=-1.60578399D-04 EMin= 2.28838229D-03
 Quartic linear search produced a step of  0.02332.
 Iteration  1 RMS(Cart)=  0.01648917 RMS(Int)=  0.00017968
 Iteration  2 RMS(Cart)=  0.00028437 RMS(Int)=  0.00003058
 Iteration  3 RMS(Cart)=  0.00000007 RMS(Int)=  0.00003058
 Variable       Old X    -DE/DX   Delta X   Delta X   Delta X     New X
                                 (Linear)    (Quad)   (Total)
    R1        2.76488   0.00175   0.00003   0.00495   0.00498   2.76986
    R2        2.60647  -0.00004  -0.00035  -0.00109  -0.00144   2.60503
    R3        2.05241   0.00018  -0.00018   0.00001  -0.00018   2.05223
    R4        3.71842   0.00042  -0.00136  -0.00075  -0.00210   3.71631
    R5        2.91648   0.00070  -0.00032   0.00171   0.00139   2.91787
    R6        2.04604   0.00041  -0.00027   0.00043   0.00016   2.04620
    R7        2.26988  -0.00092  -0.00037  -0.00198  -0.00235   2.26753
    R8        2.81752   0.00087  -0.00001   0.00265   0.00264   2.82016
    R9        2.69048   0.00064  -0.00027   0.00084   0.00058   2.69106
   R10        2.68917   0.00088  -0.00025   0.00147   0.00123   2.69040
   R11        2.58789   0.00080  -0.00025   0.00092   0.00067   2.58855
   R12        2.04440   0.00018  -0.00019  -0.00001  -0.00020   2.04420
   R13        2.63305   0.00052  -0.00029   0.00035   0.00006   2.63310
   R14        2.04148   0.00007  -0.00019  -0.00035  -0.00054   2.04094
   R15        2.64221   0.00066  -0.00027   0.00075   0.00048   2.64269
   R16        2.04530   0.00027  -0.00019   0.00025   0.00007   2.04536
   R17        2.58260   0.00062  -0.00029   0.00044   0.00016   2.58276
   R18        2.04168   0.00009  -0.00019  -0.00029  -0.00048   2.04119
   R19        2.04152   0.00021  -0.00018   0.00008  -0.00010   2.04142
   R20        2.06128   0.00003  -0.00019  -0.00044  -0.00063   2.06065
   R21        2.06721  -0.00023  -0.00020  -0.00127  -0.00147   2.06574
   R22        2.05263   0.00011  -0.00019  -0.00020  -0.00038   2.05225
    A1        2.22377   0.00035   0.00016   0.00206   0.00222   2.22598
    A2        1.99592  -0.00045  -0.00011  -0.00291  -0.00303   1.99289
    A3        2.06348   0.00011  -0.00004   0.00087   0.00083   2.06431
    A4        1.73595   0.00099   0.00031   0.01267   0.01300   1.74895
    A5        1.99113  -0.00092  -0.00013  -0.00541  -0.00568   1.98545
    A6        2.03172  -0.00033  -0.00019  -0.01034  -0.01067   2.02104
    A7        1.85657   0.00070   0.00024   0.01087   0.01112   1.86769
    A8        1.85031  -0.00015  -0.00006   0.00522   0.00522   1.85553
    A9        1.96686   0.00005  -0.00005  -0.00640  -0.00663   1.96024
   A10        2.08573   0.00081  -0.00014   0.00298   0.00281   2.08854
   A11        2.01202  -0.00019   0.00017  -0.00023  -0.00009   2.01193
   A12        2.18532  -0.00061  -0.00004  -0.00254  -0.00261   2.18271
   A13        2.04850   0.00041   0.00004   0.00181   0.00185   2.05035
   A14        2.15040  -0.00014  -0.00001  -0.00058  -0.00060   2.14980
   A15        2.08420  -0.00028  -0.00002  -0.00122  -0.00125   2.08295
   A16        2.09730   0.00014   0.00004   0.00074   0.00077   2.09808
   A17        2.07726  -0.00004   0.00003  -0.00007  -0.00004   2.07722
   A18        2.10862  -0.00010  -0.00006  -0.00067  -0.00073   2.10789
   A19        2.07996  -0.00005  -0.00008  -0.00050  -0.00059   2.07937
   A20        2.10566   0.00004   0.00004   0.00029   0.00033   2.10599
   A21        2.09756   0.00002   0.00005   0.00021   0.00026   2.09782
   A22        2.12689   0.00010   0.00012   0.00079   0.00091   2.12780
   A23        2.07965  -0.00005  -0.00006  -0.00041  -0.00047   2.07918
   A24        2.07664  -0.00005  -0.00006  -0.00038  -0.00043   2.07620
   A25        2.08963  -0.00014  -0.00008  -0.00092  -0.00100   2.08863
   A26        2.09230   0.00001   0.00005   0.00006   0.00011   2.09240
   A27        2.10126   0.00013   0.00004   0.00086   0.00090   2.10215
   A28        2.08836   0.00022   0.00004   0.00113   0.00117   2.08952
   A29        2.10416  -0.00023   0.00000  -0.00126  -0.00126   2.10290
   A30        2.09066   0.00001  -0.00004   0.00015   0.00010   2.09076
   A31        1.93519   0.00010  -0.00002   0.00050   0.00048   1.93566
   A32        1.88764   0.00018   0.00009   0.00195   0.00204   1.88968
   A33        1.92572  -0.00017  -0.00001  -0.00169  -0.00169   1.92402
   A34        1.86941   0.00007   0.00012   0.00196   0.00207   1.87148
   A35        1.93229  -0.00015  -0.00011  -0.00234  -0.00246   1.92983
   A36        1.91212  -0.00001  -0.00005  -0.00018  -0.00023   1.91189
    D1       -1.78997   0.00028   0.00045   0.00550   0.00596  -1.78401
    D2        2.52447  -0.00074   0.00005  -0.01210  -0.01201   2.51246
    D3        0.18696   0.00057   0.00049   0.01535   0.01577   0.20272
    D4        1.35642   0.00020   0.00028   0.00074   0.00105   1.35747
    D5       -0.61233  -0.00082  -0.00012  -0.01686  -0.01693  -0.62925
    D6       -2.94984   0.00050   0.00032   0.01059   0.01085  -2.93899
    D7        3.13777  -0.00023  -0.00032  -0.01172  -0.01204   3.12574
    D8       -0.01844  -0.00022  -0.00031  -0.01125  -0.01156  -0.03000
    D9       -0.00878  -0.00015  -0.00015  -0.00681  -0.00696  -0.01573
   D10        3.11819  -0.00015  -0.00014  -0.00634  -0.00648   3.11172
   D11        0.30186   0.00083  -0.00012  -0.00550  -0.00563   0.29623
   D12       -2.82428   0.00075  -0.00013  -0.01955  -0.01972  -2.84400
   D13       -1.59363  -0.00033  -0.00057  -0.02426  -0.02482  -1.61845
   D14        1.56341  -0.00040  -0.00057  -0.03831  -0.03890   1.52451
   D15        2.66923  -0.00059  -0.00061  -0.03376  -0.03433   2.63491
   D16       -0.45692  -0.00067  -0.00061  -0.04781  -0.04841  -0.50532
   D17       -0.80336  -0.00015  -0.00021   0.00119   0.00097  -0.80239
   D18        1.24141   0.00010  -0.00003   0.00501   0.00498   1.24638
   D19       -2.95061   0.00009  -0.00004   0.00500   0.00495  -2.94566
   D20        2.35468  -0.00024  -0.00021  -0.01383  -0.01403   2.34065
   D21       -1.88373   0.00001  -0.00003  -0.01001  -0.01003  -1.89376
   D22        0.20744   0.00000  -0.00005  -0.01002  -0.01006   0.19738
   D23        3.11919   0.00003   0.00006   0.00188   0.00194   3.12113
   D24       -0.01886   0.00001  -0.00000   0.00072   0.00072  -0.01815
   D25       -0.00836   0.00002   0.00005   0.00143   0.00148  -0.00688
   D26        3.13678   0.00000  -0.00001   0.00027   0.00025   3.13703
   D27       -3.12132  -0.00002  -0.00007  -0.00115  -0.00122  -3.12253
   D28        0.02536  -0.00007  -0.00011  -0.00404  -0.00416   0.02121
   D29        0.00537  -0.00001  -0.00005  -0.00065  -0.00070   0.00467
   D30       -3.13113  -0.00006  -0.00010  -0.00354  -0.00364  -3.13478
   D31        0.00596  -0.00002  -0.00003  -0.00116  -0.00119   0.00477
   D32       -3.13735  -0.00001  -0.00002  -0.00059  -0.00061  -3.13796
   D33       -3.13924  -0.00000   0.00004   0.00002   0.00006  -3.13918
   D34        0.00063   0.00001   0.00005   0.00059   0.00064   0.00127
   D35       -0.00063   0.00001   0.00001   0.00015   0.00016  -0.00047
   D36        3.13997   0.00001   0.00003   0.00079   0.00082   3.14080
   D37       -3.14051  -0.00001  -0.00000  -0.00042  -0.00042  -3.14094
   D38        0.00009   0.00000   0.00003   0.00022   0.00024   0.00034
   D39       -0.00234   0.00001  -0.00001   0.00063   0.00062  -0.00172
   D40        3.13923   0.00001   0.00003   0.00099   0.00102   3.14024
   D41        3.14024   0.00000  -0.00004  -0.00001  -0.00005   3.14019
   D42       -0.00138   0.00001   0.00000   0.00035   0.00035  -0.00103
   D43       -0.00014  -0.00001   0.00004  -0.00036  -0.00032  -0.00046
   D44        3.13641   0.00005   0.00008   0.00251   0.00259   3.13900
   D45        3.14148  -0.00001  -0.00001  -0.00072  -0.00072   3.14076
   D46       -0.00516   0.00004   0.00004   0.00215   0.00219  -0.00296
         Item               Value     Threshold  Converged?
 Maximum Force            0.001747     0.000450     NO 
 RMS     Force            0.000411     0.000300     NO 
 Maximum Displacement     0.073449     0.001800     NO 
 RMS     Displacement     0.016464     0.001200     NO 
 Predicted change in Energy=-8.143921D-05
 GradGradGradGradGradGradGradGradGradGradGradGradGradGradGradGradGradGrad

                          Input orientation:                          
 ---------------------------------------------------------------------
 Center     Atomic      Atomic             Coordinates (Angstroms)
 Number     Number       Type             X           Y           Z
 ---------------------------------------------------------------------
      1          6           0       -0.604735    1.384043    0.576343
      2          6           0       -0.447474    2.174371    1.800708
      3         35           0       -1.335905    3.842000    1.255570
      4          6           0        1.019137    2.529856    2.127567
      5          8           0        1.857256    2.436438    1.273960
      6          6           0       -1.515362    0.376968    0.337835
      7          6           0       -1.492139   -0.239420   -0.945689
      8          6           0       -2.356206   -1.262224   -1.234866
      9          6           0       -3.258064   -1.684545   -0.260290
     10          6           0       -3.307222   -1.094778    1.006764
     11          6           0       -2.450121   -0.074881    1.311987
     12          6           0        1.269981    2.972681    3.530472
     13          1           0        0.091098    1.646494   -0.215059
     14          1           0       -0.985758    1.812319    2.667676
     15          1           0       -0.782629    0.110951   -1.683256
     16          1           0       -2.342649   -1.737153   -2.204761
     17          1           0       -3.941236   -2.492237   -0.489227
     18          1           0       -4.020583   -1.447330    1.737213
     19          1           0       -2.488015    0.383732    2.289342
     20          1           0        0.523507    3.701486    3.847811
     21          1           0        1.173433    2.103686    4.186589
     22          1           0        2.269926    3.386661    3.620641
 ---------------------------------------------------------------------
                    Distance matrix (angstroms):
                    1          2          3          4          5
     1  C    0.000000
     2  C    1.465749   0.000000
     3  Br   2.652831   1.966589   0.000000
     4  C    2.521139   1.544071   2.833429   0.000000
     5  O    2.766877   2.378639   3.488871   1.199923   0.000000
     6  C    1.378524   2.551674   3.588996   3.776474   4.061071
     7  C    2.395767   3.802684   4.639821   4.839452   4.827577
     8  C    3.653882   4.966704   5.770302   6.089233   6.142277
     9  C    4.142021   5.199842   6.044438   6.462003   6.745585
    10  C    3.692323   4.415409   5.321633   5.754264   6.262005
    11  C    2.464768   3.050996   4.072668   4.414247   4.986147
    12  C    3.842552   2.564962   3.566726   1.492367   2.392549
    13  H    1.085994   2.152216   3.003220   2.670109   2.441415
    14  H    2.168472   1.082804   2.497249   2.196857   3.227181
    15  H    2.599653   4.063008   4.781583   4.860023   4.595868
    16  H    4.527333   5.910625   6.641865   6.948239   6.867282
    17  H    5.224292   6.263178   7.067859   7.528235   7.811733
    18  H    4.586099   5.088011   5.951176   6.431886   7.060258
    19  H    2.735276   2.758435   3.788887   4.114868   4.911821
    20  H    4.164849   2.732309   3.193254   2.139534   3.162900
    21  H    4.088232   2.885266   4.231948   2.108317   3.010273
    22  H    4.641325   3.487988   4.336232   2.127876   2.565176
                    6          7          8          9         10
     6  C    0.000000
     7  C    1.424046   0.000000
     8  C    2.422263   1.369804   0.000000
     9  C    2.764886   2.382572   1.393378   0.000000
    10  C    2.413351   2.799685   2.440774   1.398452   0.000000
    11  C    1.423698   2.458028   2.811595   2.390783   1.366738
    12  C    4.968782   6.163028   7.334309   7.520825   6.622998
    13  H    2.120873   2.568488   3.935726   4.723849   4.533872
    14  H    2.787270   4.185984   5.153715   5.095529   4.074191
    15  H    2.166211   1.081743   2.136073   3.372894   3.881180
    16  H    3.408622   2.133502   1.080017   2.149819   3.414226
    17  H    3.847237   3.358812   2.140381   1.082360   2.143095
    18  H    3.400361   3.879438   3.411403   2.151214   1.080153
    19  H    2.180478   3.441731   3.891862   3.372146   2.121814
    20  H    5.246841   6.524661   7.665818   7.757970   6.763887
    21  H    5.002408   6.239847   7.292453   7.332366   6.357493
    22  H    5.844952   6.939233   8.160219   8.446148   7.617100
                   11         12         13         14         15
    11  C    0.000000
    12  C    5.296080   0.000000
    13  H    3.428235   4.144580   0.000000
    14  H    2.746593   2.679406   3.081765   0.000000
    15  H    3.433154   6.291713   2.297148   4.676165   0.000000
    16  H    3.891300   8.253879   4.618560   6.179040   2.474089
    17  H    3.363243   8.554536   5.784806   6.101646   4.263694
    18  H    2.128564   7.123366   5.503547   4.549861   4.961067
    19  H    1.080271   4.729228   3.810305   2.107315   4.331777
    20  H    5.434502   1.090451   4.573498   2.690641   6.722397
    21  H    5.112693   1.093144   4.555763   2.655955   6.500173
    22  H    6.292137   1.086001   4.742159   3.739809   6.941159
                   16         17         18         19         20
    16  H    0.000000
    17  H    2.463471   0.000000
    18  H    4.294021   2.460724   0.000000
    19  H    4.971544   4.254820   2.450795   0.000000
    20  H    8.627123   8.781004   7.184266   4.744005   0.000000
    21  H    8.244042   8.315383   6.751811   4.468108   1.757878
    22  H    9.025775   9.488466   8.153850   5.781690   1.789049
                   21         22
    21  H    0.000000
    22  H    1.780061   0.000000
 Stoichiometry    C10H10BrO(1+)
 Framework group  C1[X(C10H10BrO)]
 Deg. of freedom    60
 Full point group                 C1      NOp   1
 Largest Abelian subgroup         C1      NOp   1
 Largest concise Abelian subgroup C1      NOp   1
                         Standard orientation:                         
 ---------------------------------------------------------------------
 Center     Atomic      Atomic             Coordinates (Angstroms)
 Number     Number       Type             X           Y           Z
 ---------------------------------------------------------------------
      1          6           0        0.196132    0.480642   -0.512500
      2          6           0       -0.973267    0.347218    0.361069
      3         35           0       -1.630306   -1.418329   -0.203393
      4          6           0       -2.094880    1.364436    0.058736
      5          8           0       -2.100486    1.948118   -0.989643
      6          6           0        1.520720    0.299576   -0.176332
      7          6           0        2.488930    0.466414   -1.207177
      8          6           0        3.822701    0.323359   -0.929774
      9          6           0        4.215482    0.007847    0.369332
     10          6           0        3.287141   -0.166923    1.400500
     11          6           0        1.952822   -0.025122    1.140776
     12          6           0       -3.107801    1.536468    1.141121
     13          1           0       -0.042080    0.754426   -1.536062
     14          1           0       -0.763583    0.269266    1.420512
     15          1           0        2.154451    0.708874   -2.206930
     16          1           0        4.563433    0.451559   -1.705220
     17          1           0        5.269372   -0.105879    0.588162
     18          1           0        3.627969   -0.412351    2.395655
     19          1           0        1.233842   -0.162054    1.935322
     20          1           0       -3.435368    0.569701    1.524715
     21          1           0       -2.636213    2.070760    1.970036
     22          1           0       -3.955122    2.108782    0.775193
 ---------------------------------------------------------------------
 Rotational constants (GHZ):           1.1905447           0.3697000           0.3330060
 Standard basis: def2TZVP (5D, 7F)
 There are   511 symmetry adapted cartesian basis functions of A   symmetry.
 There are   449 symmetry adapted basis functions of A   symmetry.
   449 basis functions,   755 primitive gaussians,   511 cartesian basis functions
    56 alpha electrons       56 beta electrons
       nuclear repulsion energy       926.1457330969 Hartrees.
 NAtoms=   22 NActive=   22 NUniq=   22 SFac= 1.00D+00 NAtFMM=   60 NAOKFM=F Big=F
 Integral buffers will be    131072 words long.
 Raffenetti 2 integral format.
 Two-electron integral symmetry is turned on.
 Nuclear repulsion after empirical dispersion term =      926.1327132829 Hartrees.
 ------------------------------------------------------------------------------
 Polarizable Continuum Model (PCM)
 =================================
 Model                : C-PCM.
 Atomic radii         : UFF (Universal Force Field).
 Polarization charges : Total charges.
 Charge compensation  : None.
 Solution method      : On-the-fly selection.
 Cavity type          : Scaled VdW (van der Waals Surface) (Alpha=1.100).
 Cavity algorithm     : GePol (No added spheres)
                        Default sphere list used, NSphG=   22.
                        Lebedev-Laikov grids with approx.  5.0 points / Ang**2.
                        Smoothing algorithm: York/Karplus (Gamma=1.0000).
                        Polarization charges: spherical gaussians, with
                                              point-specific exponents (IZeta= 3).
                        Self-potential: point-specific (ISelfS= 7).
                        Self-field    : sphere-specific E.n sum rule (ISelfD= 2).
 1st derivatives      : Analytical E(r).r(x)/FMM algorithm (CHGder, D1EAlg=3).
                        Cavity 1st derivative terms included.
 Solvent              : DiChloroEthane, Eps=  10.125000 Eps(inf)=   2.087447
 ------------------------------------------------------------------------------
 One-electron integrals computed using PRISM.
   1 Symmetry operations used in ECPInt.
 ECPInt:  NShTT=   15753 NPrTT=   51378 LenC2=   14556 LenP2D=   35130.
 LDataN:  DoStor=T MaxTD1= 6 Len=  172
 NBasis=   449 RedAO= T EigKep=  8.69D-06  NBF=   449
 NBsUse=   449 1.00D-06 EigRej= -1.00D+00 NBFU=   449
 Initial guess from the checkpoint file:  "d2.chk"
 B after Tr=     0.000000   -0.000000   -0.000000
         Rot=    0.999993   -0.003547    0.000535    0.001217 Ang=  -0.43 deg.
 ExpMin= 9.52D-02 ExpMax= 5.65D+05 ExpMxC= 5.46D+03 IAcc=3 IRadAn=         5 AccDes= 0.00D+00
 Harris functional with IExCor= 4639 and IRadAn=       5 diagonalized for initial guess.
 HarFok:  IExCor= 4639 AccDes= 0.00D+00 IRadAn=         5 IDoV= 1 UseB2=F ITyADJ=14
 ICtDFT=  3500011 ScaDFX=  1.000000  1.000000  1.000000  1.000000
 FoFCou: FMM=F IPFlag=           0 FMFlag=      100000 FMFlg1=           0
         NFxFlg=           0 DoJE=T BraDBF=F KetDBF=T FulRan=T
         wScrn=  0.000000 ICntrl=       500 IOpCl=  0 I1Cent=   200000004 NGrid=           0
         NMat0=    1 NMatS0=      1 NMatT0=    0 NMatD0=    1 NMtDS0=    0 NMtDT0=    0
 Petite list used in FoFCou.
 Requested convergence on RMS density matrix=1.00D-08 within 128 cycles.
 Requested convergence on MAX density matrix=1.00D-06.
 Requested convergence on             energy=1.00D-06.
 No special actions if energy rises.
 Inv3:  Mode=1 IEnd=    10955763.
 Iteration    1 A*A^-1 deviation from unit magnitude is 4.88D-15 for   1898.
 Iteration    1 A*A^-1 deviation from orthogonality  is 2.17D-15 for   1322    626.
 Iteration    1 A^-1*A deviation from unit magnitude is 5.11D-15 for   1898.
 Iteration    1 A^-1*A deviation from orthogonality  is 1.80D-15 for   1906   1777.
 Error on total polarization charges =  0.01058
 SCF Done:  E(RwB97XD) =  -3036.30953359     A.U. after   12 cycles
            NFock= 12  Conv=0.19D-08     -V/T= 2.0019
   1 Symmetry operations used in ECPInt.
 ECPInt:  NShTT=   15753 NPrTT=   51378 LenC2=   14556 LenP2D=   35130.
 LDataN:  DoStor=T MaxTD1= 7 Len=  274
 D1PCM: C-PCM CHGder 1st derivatives, ID1Alg=3 FixD1E=F DoIter=F DoCFld=F I1PDM=0.
 Calling FoFJK, ICntrl=      2127 FMM=F ISym2X=0 I1Cent= 0 IOpClX= 0 NMat=1 NMatS=1 NMatT=0.
 ***** Axes restored to original set *****
 -------------------------------------------------------------------
 Center     Atomic                   Forces (Hartrees/Bohr)
 Number     Number              X              Y              Z
 -------------------------------------------------------------------
      1        6          -0.000025028   -0.000975939   -0.000405335
      2        6          -0.000884125    0.001521486   -0.000333705
      3       35           0.000211942   -0.000529791    0.000424015
      4        6          -0.000708172    0.001228932   -0.000114173
      5        8           0.000907450   -0.000640666   -0.000545995
      6        6           0.000748514    0.000667059    0.000132942
      7        6           0.000059541   -0.000232011   -0.000393811
      8        6           0.000135446    0.000143404   -0.000203129
      9        6          -0.000187871   -0.000239167   -0.000060407
     10        6          -0.000034680    0.000112724    0.000296018
     11        6          -0.000381232   -0.000130628    0.000405448
     12        6          -0.000020903   -0.000730866    0.000462952
     13        1           0.000151125    0.000043577   -0.000258157
     14        1          -0.000052880   -0.000266988    0.000537814
     15        1           0.000207594    0.000085798   -0.000162218
     16        1          -0.000002635   -0.000094296   -0.000224564
     17        1          -0.000170710   -0.000205807   -0.000048139
     18        1          -0.000156113   -0.000094364    0.000155056
     19        1           0.000037248    0.000103871    0.000231863
     20        1          -0.000108396    0.000175136   -0.000036017
     21        1          -0.000008211   -0.000041383    0.000214616
     22        1           0.000282096    0.000099920   -0.000075075
 -------------------------------------------------------------------
 Cartesian Forces:  Max     0.001521486 RMS     0.000425533

 GradGradGradGradGradGradGradGradGradGradGradGradGradGradGradGradGradGrad
 Berny optimization.
 Using GEDIIS/GDIIS optimizer.
 FormGI is forming the generalized inverse of G from B-inverse, IUseBI=4.
 Internal  Forces:  Max     0.001069321 RMS     0.000267674
 Search for a local minimum.
 Step number   3 out of a maximum of  114
 All quantities printed in internal units (Hartrees-Bohrs-Radians)
 Mixed Optimization -- En-DIIS/RFO-DIIS
 Swapping is turned off.
 Update second derivatives using D2CorX and points    1    2    3
 DE= -9.57D-05 DEPred=-8.14D-05 R= 1.18D+00
 TightC=F SS=  1.41D+00  RLast= 9.17D-02 DXNew= 5.2395D-01 2.7496D-01
 Trust test= 1.18D+00 RLast= 9.17D-02 DXMaxT set to 3.12D-01
 ITU=  1  1  0
     Eigenvalues ---    0.00209   0.00727   0.00886   0.01269   0.01685
     Eigenvalues ---    0.01735   0.01921   0.02012   0.02061   0.02068
     Eigenvalues ---    0.02177   0.02181   0.02256   0.02282   0.02287
     Eigenvalues ---    0.03346   0.07151   0.07493   0.07736   0.12104
     Eigenvalues ---    0.14737   0.15963   0.16000   0.16000   0.16000
     Eigenvalues ---    0.16000   0.16000   0.16000   0.16014   0.16293
     Eigenvalues ---    0.17992   0.21366   0.22001   0.22007   0.22312
     Eigenvalues ---    0.23533   0.24974   0.25002   0.25325   0.27849
     Eigenvalues ---    0.33007   0.33876   0.34256   0.34773   0.34825
     Eigenvalues ---    0.35074   0.35232   0.35322   0.35427   0.35441
     Eigenvalues ---    0.35602   0.36452   0.38973   0.40081   0.44198
     Eigenvalues ---    0.45587   0.47753   0.47973   0.51931   1.03788
 En-DIIS/RFO-DIIS/Sim-DIIS IScMMF=       -3 using points:     3    2
 RFO step:  Lambda=-1.67906796D-04.
 DidBck=F Rises=F RFO-DIIS coefs:    1.73554   -0.73554
 Iteration  1 RMS(Cart)=  0.02487590 RMS(Int)=  0.00066557
 Iteration  2 RMS(Cart)=  0.00078818 RMS(Int)=  0.00015375
 Iteration  3 RMS(Cart)=  0.00000049 RMS(Int)=  0.00015375
 Variable       Old X    -DE/DX   Delta X   Delta X   Delta X     New X
                                 (Linear)    (Quad)   (Total)
    R1        2.76986   0.00086   0.00366   0.00420   0.00787   2.77773
    R2        2.60503  -0.00029  -0.00106  -0.00246  -0.00352   2.60151
    R3        2.05223   0.00030  -0.00013   0.00027   0.00014   2.05237
    R4        3.71631  -0.00066  -0.00155  -0.01143  -0.01297   3.70334
    R5        2.91787   0.00032   0.00103   0.00051   0.00154   2.91941
    R6        2.04620   0.00055   0.00012   0.00086   0.00098   2.04719
    R7        2.26753   0.00107  -0.00173  -0.00076  -0.00249   2.26503
    R8        2.82016   0.00042   0.00195   0.00217   0.00412   2.82428
    R9        2.69106   0.00065   0.00042   0.00100   0.00142   2.69248
   R10        2.69040   0.00079   0.00090   0.00167   0.00257   2.69297
   R11        2.58855   0.00027   0.00049  -0.00017   0.00032   2.58887
   R12        2.04420   0.00028  -0.00014   0.00015   0.00001   2.04420
   R13        2.63310   0.00059   0.00004   0.00043   0.00047   2.63357
   R14        2.04094   0.00024  -0.00040  -0.00007  -0.00047   2.04047
   R15        2.64269   0.00058   0.00035   0.00063   0.00098   2.64367
   R16        2.04536   0.00027   0.00005   0.00021   0.00025   2.04562
   R17        2.58276   0.00029   0.00011  -0.00037  -0.00026   2.58250
   R18        2.04119   0.00024  -0.00035  -0.00007  -0.00043   2.04077
   R19        2.04142   0.00025  -0.00008   0.00010   0.00002   2.04144
   R20        2.06065   0.00018  -0.00046  -0.00025  -0.00072   2.05994
   R21        2.06574   0.00017  -0.00108  -0.00057  -0.00165   2.06409
   R22        2.05225   0.00029  -0.00028   0.00017  -0.00011   2.05213
    A1        2.22598  -0.00007   0.00163   0.00083   0.00245   2.22843
    A2        1.99289   0.00009  -0.00223  -0.00060  -0.00284   1.99005
    A3        2.06431  -0.00003   0.00061  -0.00022   0.00038   2.06469
    A4        1.74895   0.00050   0.00956   0.01017   0.01980   1.76875
    A5        1.98545  -0.00065  -0.00418  -0.00554  -0.01008   1.97537
    A6        2.02104   0.00022  -0.00785  -0.00441  -0.01268   2.00837
    A7        1.86769   0.00024   0.00818   0.00733   0.01556   1.88326
    A8        1.85553  -0.00016   0.00384   0.00184   0.00583   1.86136
    A9        1.96024  -0.00004  -0.00487  -0.00538  -0.01071   1.94952
   A10        2.08854   0.00010   0.00207   0.00063   0.00193   2.09047
   A11        2.01193  -0.00001  -0.00006   0.00054  -0.00029   2.01164
   A12        2.18271  -0.00009  -0.00192  -0.00127  -0.00395   2.17876
   A13        2.05035   0.00001   0.00136   0.00065   0.00201   2.05236
   A14        2.14980  -0.00000  -0.00044  -0.00023  -0.00067   2.14913
   A15        2.08295  -0.00000  -0.00092  -0.00040  -0.00132   2.08163
   A16        2.09808  -0.00004   0.00057   0.00013   0.00069   2.09877
   A17        2.07722  -0.00001  -0.00003   0.00000  -0.00003   2.07719
   A18        2.10789   0.00004  -0.00054  -0.00013  -0.00066   2.10723
   A19        2.07937   0.00005  -0.00043  -0.00025  -0.00069   2.07869
   A20        2.10599  -0.00003   0.00024   0.00004   0.00029   2.10628
   A21        2.09782  -0.00001   0.00019   0.00021   0.00040   2.09821
   A22        2.12780   0.00002   0.00067   0.00076   0.00143   2.12923
   A23        2.07918  -0.00001  -0.00035  -0.00037  -0.00072   2.07846
   A24        2.07620  -0.00001  -0.00032  -0.00039  -0.00071   2.07549
   A25        2.08863   0.00000  -0.00074  -0.00056  -0.00130   2.08733
   A26        2.09240  -0.00002   0.00008   0.00005   0.00013   2.09253
   A27        2.10215   0.00002   0.00066   0.00051   0.00117   2.10332
   A28        2.08952  -0.00003   0.00086   0.00033   0.00119   2.09071
   A29        2.10290  -0.00002  -0.00093  -0.00049  -0.00142   2.10148
   A30        2.09076   0.00005   0.00008   0.00016   0.00023   2.09099
   A31        1.93566  -0.00012   0.00035  -0.00104  -0.00070   1.93496
   A32        1.88968   0.00028   0.00150   0.00336   0.00485   1.89453
   A33        1.92402  -0.00017  -0.00125  -0.00197  -0.00322   1.92080
   A34        1.87148  -0.00002   0.00153   0.00128   0.00280   1.87428
   A35        1.92983   0.00005  -0.00181  -0.00138  -0.00319   1.92664
   A36        1.91189  -0.00001  -0.00017  -0.00004  -0.00020   1.91169
    D1       -1.78401   0.00001   0.00438   0.00142   0.00584  -1.77817
    D2        2.51246  -0.00030  -0.00884  -0.01062  -0.01934   2.49312
    D3        0.20272   0.00021   0.01160   0.00797   0.01941   0.22214
    D4        1.35747   0.00001   0.00077   0.00013   0.00094   1.35841
    D5       -0.62925  -0.00029  -0.01245  -0.01192  -0.02424  -0.65350
    D6       -2.93899   0.00022   0.00798   0.00668   0.01451  -2.92448
    D7        3.12574  -0.00001  -0.00885  -0.00499  -0.01385   3.11189
    D8       -0.03000   0.00001  -0.00850  -0.00352  -0.01202  -0.04202
    D9       -0.01573  -0.00002  -0.00512  -0.00365  -0.00876  -0.02450
   D10        3.11172  -0.00000  -0.00476  -0.00218  -0.00694   3.10478
   D11        0.29623   0.00005  -0.00414  -0.04012  -0.04440   0.25183
   D12       -2.84400   0.00046  -0.01450   0.03838   0.02384  -2.82016
   D13       -1.61845  -0.00038  -0.01826  -0.05382  -0.07215  -1.69060
   D14        1.52451   0.00003  -0.02861   0.02467  -0.00391   1.52060
   D15        2.63491  -0.00030  -0.02525  -0.05758  -0.08277   2.55213
   D16       -0.50532   0.00010  -0.03561   0.02091  -0.01453  -0.51986
   D17       -0.80239  -0.00032   0.00072  -0.04949  -0.04871  -0.85110
   D18        1.24638  -0.00024   0.00366  -0.04651  -0.04278   1.20360
   D19       -2.94566  -0.00018   0.00364  -0.04567  -0.04197  -2.98763
   D20        2.34065   0.00011  -0.01032   0.03384   0.02345   2.36410
   D21       -1.89376   0.00019  -0.00738   0.03682   0.02938  -1.86438
   D22        0.19738   0.00025  -0.00740   0.03766   0.03020   0.22758
   D23        3.12113   0.00005   0.00143   0.00418   0.00561   3.12674
   D24       -0.01815   0.00003   0.00053   0.00228   0.00280  -0.01534
   D25       -0.00688   0.00004   0.00109   0.00277   0.00385  -0.00303
   D26        3.13703   0.00001   0.00018   0.00086   0.00105   3.13807
   D27       -3.12253  -0.00003  -0.00089  -0.00274  -0.00364  -3.12617
   D28        0.02121  -0.00004  -0.00306  -0.00409  -0.00714   0.01407
   D29        0.00467  -0.00001  -0.00052  -0.00124  -0.00176   0.00291
   D30       -3.13478  -0.00002  -0.00268  -0.00258  -0.00526  -3.14004
   D31        0.00477  -0.00004  -0.00088  -0.00247  -0.00334   0.00142
   D32       -3.13796  -0.00002  -0.00045  -0.00153  -0.00198  -3.13994
   D33       -3.13918  -0.00001   0.00004  -0.00053  -0.00049  -3.13967
   D34        0.00127   0.00000   0.00047   0.00040   0.00087   0.00215
   D35       -0.00047   0.00001   0.00011   0.00069   0.00080   0.00033
   D36        3.14080   0.00002   0.00061   0.00118   0.00178  -3.14061
   D37       -3.14094  -0.00000  -0.00031  -0.00024  -0.00055  -3.14149
   D38        0.00034   0.00000   0.00018   0.00025   0.00043   0.00076
   D39       -0.00172   0.00001   0.00045   0.00083   0.00129  -0.00043
   D40        3.14024   0.00000   0.00075   0.00075   0.00149  -3.14145
   D41        3.14019   0.00001  -0.00004   0.00034   0.00031   3.14050
   D42       -0.00103   0.00000   0.00026   0.00026   0.00052  -0.00051
   D43       -0.00046  -0.00001  -0.00024  -0.00052  -0.00075  -0.00121
   D44        3.13900  -0.00000   0.00191   0.00082   0.00273  -3.14146
   D45        3.14076  -0.00001  -0.00053  -0.00043  -0.00096   3.13980
   D46       -0.00296   0.00000   0.00161   0.00090   0.00252  -0.00045
         Item               Value     Threshold  Converged?
 Maximum Force            0.001069     0.000450     NO 
 RMS     Force            0.000268     0.000300     YES
 Maximum Displacement     0.111447     0.001800     NO 
 RMS     Displacement     0.024949     0.001200     NO 
 Predicted change in Energy=-8.573232D-05
 GradGradGradGradGradGradGradGradGradGradGradGradGradGradGradGradGradGrad

                          Input orientation:                          
 ---------------------------------------------------------------------
 Center     Atomic      Atomic             Coordinates (Angstroms)
 Number     Number       Type             X           Y           Z
 ---------------------------------------------------------------------
      1          6           0       -0.610504    1.396091    0.569123
      2          6           0       -0.461606    2.202251    1.789194
      3         35           0       -1.356033    3.864991    1.264015
      4          6           0        1.009489    2.538409    2.120170
      5          8           0        1.858274    2.377462    1.289321
      6          6           0       -1.512410    0.382713    0.334984
      7          6           0       -1.492184   -0.235187   -0.948698
      8          6           0       -2.354179   -1.260880   -1.234605
      9          6           0       -3.248661   -1.687546   -0.254783
     10          6           0       -3.294175   -1.099790    1.013914
     11          6           0       -2.440619   -0.075681    1.314320
     12          6           0        1.264487    2.965718    3.529443
     13          1           0        0.085001    1.659392   -0.222386
     14          1           0       -0.991118    1.825364    2.655893
     15          1           0       -0.788170    0.118229   -1.690073
     16          1           0       -2.343793   -1.735123   -2.204597
     17          1           0       -3.929047   -2.498637   -0.480613
     18          1           0       -4.001123   -1.457488    1.747752
     19          1           0       -2.472766    0.380558    2.293004
     20          1           0        0.555953    3.735281    3.836048
     21          1           0        1.116085    2.105260    4.185680
     22          1           0        2.283339    3.327731    3.630225
 ---------------------------------------------------------------------
                    Distance matrix (angstroms):
                    1          2          3          4          5
     1  C    0.000000
     2  C    1.469912   0.000000
     3  Br   2.670985   1.959724   0.000000
     4  C    2.516946   1.544884   2.844031   0.000000
     5  O    2.752570   2.379583   3.541914   1.198604   0.000000
     6  C    1.376659   2.555316   3.607467   3.767478   4.031290
     7  C    2.396290   3.807788   4.661126   4.834165   4.802107
     8  C    3.654221   4.971768   5.789124   6.083040   6.111669
     9  C    4.140955   5.203464   6.059658   6.452204   6.707409
    10  C    3.691795   4.419048   5.335541   5.742980   6.222127
    11  C    2.463890   3.054665   4.087513   4.402966   4.949649
    12  C    3.839637   2.567244   3.578824   1.494545   2.390978
    13  H    1.086067   2.154050   3.025001   2.667381   2.438315
    14  H    2.164198   1.083325   2.496110   2.190401   3.208015
    15  H    2.601626   4.068795   4.804928   4.858683   4.580894
    16  H    4.527948   5.915735   6.660947   6.943428   6.839458
    17  H    5.223368   6.266859   7.082365   7.518314   7.771879
    18  H    4.585671   5.091522   5.963161   6.419667   7.017801
    19  H    2.733330   2.759919   3.800946   4.100279   4.873696
    20  H    4.183926   2.752311   3.207471   2.140662   3.166312
    21  H    4.069831   2.870829   4.212381   2.113129   3.002305
    22  H    4.634210   3.491535   4.374086   2.127437   2.561937
                    6          7          8          9         10
     6  C    0.000000
     7  C    1.424798   0.000000
     8  C    2.423548   1.369973   0.000000
     9  C    2.765567   2.382451   1.393626   0.000000
    10  C    2.415253   2.801170   2.442413   1.398971   0.000000
    11  C    1.425059   2.458906   2.812327   2.390213   1.366602
    12  C    4.958592   6.156198   7.324959   7.506112   6.605879
    13  H    2.119504   2.569917   3.937281   4.724018   4.534353
    14  H    2.782014   4.182106   5.149642   5.090095   4.068992
    15  H    2.166872   1.081746   2.135832   3.372669   3.882677
    16  H    3.409677   2.133619   1.079768   2.150075   3.415507
    17  H    3.848052   3.358662   2.140270   1.082494   2.143233
    18  H    3.402344   3.880675   3.412555   2.151574   1.079927
    19  H    2.180854   3.442283   3.892609   3.371985   2.121842
    20  H    5.270226   6.546241   7.690385   7.785694   6.794545
    21  H    4.970314   6.216317   7.263135   7.290685   6.307365
    22  H    5.825758   6.922102   8.138089   8.417203   7.586613
                   11         12         13         14         15
    11  C    0.000000
    12  C    5.280595   0.000000
    13  H    3.427930   4.144140   0.000000
    14  H    2.741322   2.674181   3.077347   0.000000
    15  H    3.434322   6.290067   2.300373   4.673641   0.000000
    16  H    3.891773   8.246017   4.620707   6.175043   2.473785
    17  H    3.362724   8.538882   5.785194   6.096399   4.263319
    18  H    2.128949   7.103929   5.503889   4.545544   4.962317
    19  H    1.080282   4.709447   3.808513   2.101056   4.332618
    20  H    5.464613   1.090071   4.582794   2.726532   6.740011
    21  H    5.064718   1.092272   4.548954   2.618949   6.488371
    22  H    6.265973   1.085942   4.739057   3.732090   6.931136
                   16         17         18         19         20
    16  H    0.000000
    17  H    2.463352   0.000000
    18  H    4.294751   2.460650   0.000000
    19  H    4.972037   4.254817   2.451854   0.000000
    20  H    8.650043   8.809683   7.217532   4.775802   0.000000
    21  H    8.219181   8.271851   6.694960   4.408704   1.758681
    22  H    9.004887   9.457235   8.120128   5.752784   1.786707
                   21         22
    21  H    0.000000
    22  H    1.779170   0.000000
 Stoichiometry    C10H10BrO(1+)
 Framework group  C1[X(C10H10BrO)]
 Deg. of freedom    60
 Full point group                 C1      NOp   1
 Largest Abelian subgroup         C1      NOp   1
 Largest concise Abelian subgroup C1      NOp   1
                         Standard orientation:                         
 ---------------------------------------------------------------------
 Center     Atomic      Atomic             Coordinates (Angstroms)
 Number     Number       Type             X           Y           Z
 ---------------------------------------------------------------------
      1          6           0        0.198744    0.473208   -0.523337
      2          6           0       -0.979961    0.332091    0.343485
      3         35           0       -1.648532   -1.428463   -0.198716
      4          6           0       -2.082838    1.371693    0.044225
      5          8           0       -2.043518    2.005254   -0.972488
      6          6           0        1.520472    0.295180   -0.181972
      7          6           0        2.494506    0.452758   -1.209823
      8          6           0        3.826746    0.305134   -0.926680
      9          6           0        4.212659   -0.002020    0.376746
     10          6           0        3.280315   -0.164999    1.406937
     11          6           0        1.947759   -0.020801    1.140290
     12          6           0       -3.089059    1.565099    1.132240
     13          1           0       -0.036088    0.746479   -1.547895
     14          1           0       -0.765397    0.269627    1.403510
     15          1           0        2.165369    0.689352   -2.212753
     16          1           0        4.570880    0.424507   -1.699928
     17          1           0        5.265452   -0.117708    0.600436
     18          1           0        3.617158   -0.402735    2.405066
     19          1           0        1.224882   -0.145785    1.933282
     20          1           0       -3.469890    0.606135    1.483822
     21          1           0       -2.597311    2.050921    1.977947
     22          1           0       -3.904339    2.189331    0.778793
 ---------------------------------------------------------------------
 Rotational constants (GHZ):           1.1736313           0.3703273           0.3318736
 Standard basis: def2TZVP (5D, 7F)
 There are   511 symmetry adapted cartesian basis functions of A   symmetry.
 There are   449 symmetry adapted basis functions of A   symmetry.
   449 basis functions,   755 primitive gaussians,   511 cartesian basis functions
    56 alpha electrons       56 beta electrons
       nuclear repulsion energy       924.7897415178 Hartrees.
 NAtoms=   22 NActive=   22 NUniq=   22 SFac= 1.00D+00 NAtFMM=   60 NAOKFM=F Big=F
 Integral buffers will be    131072 words long.
 Raffenetti 2 integral format.
 Two-electron integral symmetry is turned on.
 Nuclear repulsion after empirical dispersion term =      924.7767075645 Hartrees.
 ------------------------------------------------------------------------------
 Polarizable Continuum Model (PCM)
 =================================
 Model                : C-PCM.
 Atomic radii         : UFF (Universal Force Field).
 Polarization charges : Total charges.
 Charge compensation  : None.
 Solution method      : On-the-fly selection.
 Cavity type          : Scaled VdW (van der Waals Surface) (Alpha=1.100).
 Cavity algorithm     : GePol (No added spheres)
                        Default sphere list used, NSphG=   22.
                        Lebedev-Laikov grids with approx.  5.0 points / Ang**2.
                        Smoothing algorithm: York/Karplus (Gamma=1.0000).
                        Polarization charges: spherical gaussians, with
                                              point-specific exponents (IZeta= 3).
                        Self-potential: point-specific (ISelfS= 7).
                        Self-field    : sphere-specific E.n sum rule (ISelfD= 2).
 1st derivatives      : Analytical E(r).r(x)/FMM algorithm (CHGder, D1EAlg=3).
                        Cavity 1st derivative terms included.
 Solvent              : DiChloroEthane, Eps=  10.125000 Eps(inf)=   2.087447
 ------------------------------------------------------------------------------
 One-electron integrals computed using PRISM.
   1 Symmetry operations used in ECPInt.
 ECPInt:  NShTT=   15753 NPrTT=   51378 LenC2=   14558 LenP2D=   35116.
 LDataN:  DoStor=T MaxTD1= 6 Len=  172
 NBasis=   449 RedAO= T EigKep=  8.71D-06  NBF=   449
 NBsUse=   449 1.00D-06 EigRej= -1.00D+00 NBFU=   449
 Initial guess from the checkpoint file:  "d2.chk"
 B after Tr=    -0.000000    0.000000    0.000000
         Rot=    0.999995    0.001188    0.000544    0.002881 Ang=   0.36 deg.
 ExpMin= 9.52D-02 ExpMax= 5.65D+05 ExpMxC= 5.46D+03 IAcc=3 IRadAn=         5 AccDes= 0.00D+00
 Harris functional with IExCor= 4639 and IRadAn=       5 diagonalized for initial guess.
 HarFok:  IExCor= 4639 AccDes= 0.00D+00 IRadAn=         5 IDoV= 1 UseB2=F ITyADJ=14
 ICtDFT=  3500011 ScaDFX=  1.000000  1.000000  1.000000  1.000000
 FoFCou: FMM=F IPFlag=           0 FMFlag=      100000 FMFlg1=           0
         NFxFlg=           0 DoJE=T BraDBF=F KetDBF=T FulRan=T
         wScrn=  0.000000 ICntrl=       500 IOpCl=  0 I1Cent=   200000004 NGrid=           0
         NMat0=    1 NMatS0=      1 NMatT0=    0 NMatD0=    1 NMtDS0=    0 NMtDT0=    0
 Petite list used in FoFCou.
 Requested convergence on RMS density matrix=1.00D-08 within 128 cycles.
 Requested convergence on MAX density matrix=1.00D-06.
 Requested convergence on             energy=1.00D-06.
 No special actions if energy rises.
 Inv3:  Mode=1 IEnd=    10990188.
 Iteration    1 A*A^-1 deviation from unit magnitude is 5.11D-15 for   1897.
 Iteration    1 A*A^-1 deviation from orthogonality  is 2.10D-15 for   1904   1125.
 Iteration    1 A^-1*A deviation from unit magnitude is 4.88D-15 for   1897.
 Iteration    1 A^-1*A deviation from orthogonality  is 1.85D-15 for    877    314.
 Error on total polarization charges =  0.01061
 SCF Done:  E(RwB97XD) =  -3036.30938968     A.U. after   12 cycles
            NFock= 12  Conv=0.38D-08     -V/T= 2.0019
   1 Symmetry operations used in ECPInt.
 ECPInt:  NShTT=   15753 NPrTT=   51378 LenC2=   14558 LenP2D=   35116.
 LDataN:  DoStor=T MaxTD1= 7 Len=  274
 D1PCM: C-PCM CHGder 1st derivatives, ID1Alg=3 FixD1E=F DoIter=F DoCFld=F I1PDM=0.
 Calling FoFJK, ICntrl=      2127 FMM=F ISym2X=0 I1Cent= 0 IOpClX= 0 NMat=1 NMatS=1 NMatT=0.
 ***** Axes restored to original set *****
 -------------------------------------------------------------------
 Center     Atomic                   Forces (Hartrees/Bohr)
 Number     Number              X              Y              Z
 -------------------------------------------------------------------
      1        6           0.000500929    0.001620113   -0.000221671
      2        6          -0.000122713   -0.000578212   -0.001080101
      3       35          -0.000026469    0.000077793   -0.000088902
      4        6          -0.001369026   -0.005928289    0.005172214
      5        8           0.001869798    0.001926135   -0.003353546
      6        6          -0.000092200   -0.000216073    0.000623517
      7        6           0.000006237   -0.000363930   -0.000589417
      8        6           0.000386935    0.000583686    0.000370445
      9        6          -0.000358436   -0.000373796    0.000033182
     10        6           0.000387272    0.000302251   -0.000276005
     11        6          -0.000194792    0.000018866    0.000361330
     12        6          -0.000229184    0.002704153   -0.001479888
     13        1          -0.000145220   -0.000047300   -0.000444744
     14        1          -0.000191927    0.000671454    0.000701201
     15        1           0.000267201    0.000119781   -0.000118852
     16        1          -0.000012651   -0.000160388   -0.000350576
     17        1          -0.000145376   -0.000152939   -0.000037115
     18        1          -0.000213344   -0.000116164    0.000265737
     19        1          -0.000102993    0.000139492    0.000218463
     20        1          -0.000355958    0.000271984    0.000453750
     21        1          -0.000278869   -0.000640125   -0.000218860
     22        1           0.000420787    0.000141508    0.000059839
 -------------------------------------------------------------------
 Cartesian Forces:  Max     0.005928289 RMS     0.001239415

 GradGradGradGradGradGradGradGradGradGradGradGradGradGradGradGradGradGrad
 Berny optimization.
 Using GEDIIS/GDIIS optimizer.
 FormGI is forming the generalized inverse of G from B-inverse, IUseBI=4.
 Internal  Forces:  Max     0.003386890 RMS     0.000522324
 Search for a local minimum.
 Step number   4 out of a maximum of  114
 All quantities printed in internal units (Hartrees-Bohrs-Radians)
 Mixed Optimization -- En-DIIS/RFO-DIIS
 Swapping is turned off.
 Update second derivatives using D2CorX and points    1    2    3    4
 DE=  1.44D-04 DEPred=-8.57D-05 R=-1.68D+00
 Trust test=-1.68D+00 RLast= 1.64D-01 DXMaxT set to 1.56D-01
 ITU= -1  1  1  0
     Eigenvalues ---    0.00202   0.00851   0.01266   0.01526   0.01696
     Eigenvalues ---    0.01880   0.01922   0.02030   0.02063   0.02068
     Eigenvalues ---    0.02181   0.02190   0.02271   0.02287   0.02423
     Eigenvalues ---    0.03156   0.07057   0.07452   0.07698   0.11944
     Eigenvalues ---    0.14283   0.15996   0.16000   0.16000   0.16000
     Eigenvalues ---    0.16000   0.16000   0.16000   0.16254   0.16441
     Eigenvalues ---    0.18078   0.21066   0.22000   0.22010   0.22315
     Eigenvalues ---    0.23558   0.24931   0.24993   0.25452   0.27719
     Eigenvalues ---    0.33084   0.33792   0.34254   0.34781   0.34781
     Eigenvalues ---    0.35008   0.35174   0.35243   0.35336   0.35428
     Eigenvalues ---    0.35451   0.35947   0.38777   0.40078   0.43883
     Eigenvalues ---    0.44492   0.47154   0.47813   0.50356   1.00630
 En-DIIS/RFO-DIIS/Sim-DIIS IScMMF=       -3 using points:     4    3    2
 RFO step:  Lambda=-3.59080087D-04.
 EnCoef did     7 forward-backward iterations
 DidBck=T Rises=T En-DIIS coefs:    0.39400    0.38723    0.21877
 Iteration  1 RMS(Cart)=  0.01520230 RMS(Int)=  0.00022681
 Iteration  2 RMS(Cart)=  0.00033871 RMS(Int)=  0.00006554
 Iteration  3 RMS(Cart)=  0.00000008 RMS(Int)=  0.00006554
 Variable       Old X    -DE/DX   Delta X   Delta X   Delta X     New X
                                 (Linear)    (Quad)   (Total)
    R1        2.77773  -0.00062  -0.00586   0.00423  -0.00162   2.77611
    R2        2.60151   0.00011   0.00245  -0.00273  -0.00028   2.60123
    R3        2.05237   0.00022  -0.00005   0.00023   0.00019   2.05256
    R4        3.70334   0.00010   0.00832  -0.01160  -0.00328   3.70006
    R5        2.91941  -0.00015  -0.00124   0.00027  -0.00097   2.91844
    R6        2.04719   0.00042  -0.00063   0.00093   0.00030   2.04749
    R7        2.26503   0.00339   0.00202  -0.00042   0.00160   2.26664
    R8        2.82428  -0.00047  -0.00307   0.00201  -0.00106   2.82322
    R9        2.69248   0.00047  -0.00099   0.00111   0.00013   2.69260
   R10        2.69297   0.00036  -0.00183   0.00178  -0.00005   2.69292
   R11        2.58887  -0.00017  -0.00034  -0.00036  -0.00070   2.58817
   R12        2.04420   0.00030   0.00004   0.00018   0.00022   2.04443
   R13        2.63357   0.00048  -0.00030   0.00045   0.00015   2.63372
   R14        2.04047   0.00039   0.00040  -0.00001   0.00039   2.04086
   R15        2.64367   0.00032  -0.00070   0.00063  -0.00007   2.64360
   R16        2.04562   0.00021  -0.00017   0.00021   0.00004   2.04566
   R17        2.58250   0.00008   0.00012  -0.00051  -0.00039   2.58211
   R18        2.04077   0.00036   0.00037  -0.00002   0.00034   2.04111
   R19        2.04144   0.00026   0.00001   0.00012   0.00013   2.04157
   R20        2.05994   0.00055   0.00057  -0.00001   0.00056   2.06049
   R21        2.06409   0.00042   0.00132  -0.00060   0.00072   2.06482
   R22        2.05213   0.00044   0.00015   0.00031   0.00046   2.05259
    A1        2.22843  -0.00056  -0.00197   0.00051  -0.00145   2.22698
    A2        1.99005   0.00064   0.00238  -0.00014   0.00224   1.99230
    A3        2.06469  -0.00008  -0.00041  -0.00038  -0.00078   2.06390
    A4        1.76875  -0.00034  -0.01484   0.01065  -0.00424   1.76450
    A5        1.97537  -0.00001   0.00735  -0.00615   0.00145   1.97682
    A6        2.00837   0.00082   0.01002  -0.00360   0.00671   2.01507
    A7        1.88326  -0.00005  -0.01187   0.00798  -0.00393   1.87933
    A8        1.86136  -0.00014  -0.00467   0.00123  -0.00355   1.85781
    A9        1.94952  -0.00035   0.00794  -0.00664   0.00161   1.95114
   A10        2.09047  -0.00038  -0.00178   0.00096  -0.00102   2.08945
   A11        2.01164   0.00012   0.00020   0.00125   0.00125   2.01288
   A12        2.17876   0.00037   0.00296  -0.00070   0.00206   2.18082
   A13        2.05236  -0.00043  -0.00162   0.00044  -0.00118   2.05118
   A14        2.14913   0.00020   0.00054  -0.00009   0.00045   2.14958
   A15        2.08163   0.00023   0.00107  -0.00033   0.00074   2.08238
   A16        2.09877  -0.00017  -0.00059   0.00006  -0.00053   2.09824
   A17        2.07719  -0.00002   0.00003  -0.00006  -0.00004   2.07715
   A18        2.10723   0.00018   0.00056   0.00000   0.00056   2.10779
   A19        2.07869   0.00016   0.00054  -0.00021   0.00034   2.07903
   A20        2.10628  -0.00008  -0.00025   0.00003  -0.00021   2.10607
   A21        2.09821  -0.00008  -0.00030   0.00017  -0.00012   2.09809
   A22        2.12923  -0.00015  -0.00106   0.00075  -0.00032   2.12891
   A23        2.07846   0.00008   0.00054  -0.00036   0.00018   2.07864
   A24        2.07549   0.00007   0.00052  -0.00039   0.00014   2.07563
   A25        2.08733   0.00020   0.00101  -0.00048   0.00053   2.08786
   A26        2.09253  -0.00008  -0.00010   0.00000  -0.00010   2.09243
   A27        2.10332  -0.00012  -0.00090   0.00048  -0.00043   2.10289
   A28        2.09071  -0.00026  -0.00098   0.00021  -0.00076   2.08995
   A29        2.10148   0.00018   0.00114  -0.00041   0.00072   2.10221
   A30        2.09099   0.00008  -0.00016   0.00020   0.00004   2.09103
   A31        1.93496   0.00055   0.00032   0.00038   0.00071   1.93567
   A32        1.89453  -0.00104  -0.00339   0.00108  -0.00231   1.89222
   A33        1.92080   0.00016   0.00232  -0.00160   0.00073   1.92153
   A34        1.87428   0.00007  -0.00215   0.00145  -0.00069   1.87359
   A35        1.92664  -0.00007   0.00247  -0.00140   0.00108   1.92772
   A36        1.91169   0.00031   0.00017   0.00021   0.00038   1.91207
    D1       -1.77817  -0.00014  -0.00484   0.00132  -0.00354  -1.78171
    D2        2.49312   0.00011   0.01435  -0.01144   0.00283   2.49595
    D3        0.22214  -0.00016  -0.01521   0.00767  -0.00744   0.21470
    D4        1.35841  -0.00010  -0.00080  -0.00010  -0.00092   1.35748
    D5       -0.65350   0.00016   0.01839  -0.01286   0.00545  -0.64804
    D6       -2.92448  -0.00011  -0.01117   0.00625  -0.00482  -2.92930
    D7        3.11189   0.00020   0.01103  -0.00428   0.00675   3.11863
    D8       -0.04202   0.00024   0.00982  -0.00227   0.00755  -0.03447
    D9       -0.02450   0.00015   0.00683  -0.00280   0.00403  -0.02047
   D10        3.10478   0.00019   0.00562  -0.00079   0.00483   3.10961
   D11        0.25183   0.00038   0.02814   0.00194   0.03016   0.28199
   D12       -2.82016  -0.00132  -0.01014  -0.02071  -0.03080  -2.85096
   D13       -1.69060   0.00082   0.04915  -0.01238   0.03681  -1.65379
   D14        1.52060  -0.00087   0.01088  -0.03503  -0.02415   1.49645
   D15        2.55213   0.00122   0.05767  -0.01501   0.04260   2.59473
   D16       -0.51986  -0.00048   0.01940  -0.03765  -0.01835  -0.53821
   D17       -0.85110   0.00111   0.02931   0.00537   0.03466  -0.81644
   D18        1.20360   0.00088   0.02484   0.00801   0.03283   1.23643
   D19       -2.98763   0.00071   0.02435   0.00797   0.03231  -2.95532
   D20        2.36410  -0.00065  -0.01114  -0.01866  -0.02979   2.33431
   D21       -1.86438  -0.00088  -0.01561  -0.01602  -0.03162  -1.89600
   D22        0.22758  -0.00105  -0.01610  -0.01606  -0.03214   0.19544
   D23        3.12674   0.00004  -0.00383   0.00479   0.00096   3.12771
   D24       -0.01534   0.00006  -0.00185   0.00307   0.00121  -0.01413
   D25       -0.00303   0.00000  -0.00266   0.00286   0.00020  -0.00283
   D26        3.13807   0.00002  -0.00069   0.00113   0.00045   3.13852
   D27       -3.12617  -0.00004   0.00247  -0.00345  -0.00098  -3.12715
   D28        0.01407   0.00002   0.00524  -0.00436   0.00087   0.01494
   D29        0.00291  -0.00001   0.00122  -0.00140  -0.00018   0.00273
   D30       -3.14004   0.00005   0.00398  -0.00231   0.00167  -3.13837
   D31        0.00142  -0.00000   0.00229  -0.00245  -0.00016   0.00126
   D32       -3.13994  -0.00001   0.00134  -0.00158  -0.00024  -3.14019
   D33       -3.13967  -0.00002   0.00028  -0.00070  -0.00042  -3.14009
   D34        0.00215  -0.00002  -0.00067   0.00018  -0.00049   0.00165
   D35        0.00033  -0.00000  -0.00052   0.00063   0.00011   0.00044
   D36       -3.14061  -0.00001  -0.00126   0.00106  -0.00020  -3.14081
   D37       -3.14149   0.00001   0.00043  -0.00024   0.00019  -3.14130
   D38        0.00076  -0.00001  -0.00031   0.00019  -0.00012   0.00064
   D39       -0.00043  -0.00000  -0.00091   0.00081  -0.00010  -0.00053
   D40       -3.14145  -0.00001  -0.00113   0.00072  -0.00041   3.14132
   D41        3.14050   0.00001  -0.00018   0.00039   0.00021   3.14072
   D42       -0.00051   0.00000  -0.00039   0.00029  -0.00010  -0.00061
   D43       -0.00121   0.00001   0.00053  -0.00039   0.00013  -0.00108
   D44       -3.14146  -0.00005  -0.00222   0.00052  -0.00171   3.14002
   D45        3.13980   0.00001   0.00074  -0.00029   0.00045   3.14025
   D46       -0.00045  -0.00004  -0.00201   0.00062  -0.00139  -0.00184
         Item               Value     Threshold  Converged?
 Maximum Force            0.003387     0.000450     NO 
 RMS     Force            0.000522     0.000300     NO 
 Maximum Displacement     0.073193     0.001800     NO 
 RMS     Displacement     0.015135     0.001200     NO 
 Predicted change in Energy=-1.808546D-04
 GradGradGradGradGradGradGradGradGradGradGradGradGradGradGradGradGradGrad

                          Input orientation:                          
 ---------------------------------------------------------------------
 Center     Atomic      Atomic             Coordinates (Angstroms)
 Number     Number       Type             X           Y           Z
 ---------------------------------------------------------------------
      1          6           0       -0.608298    1.387214    0.574253
      2          6           0       -0.455510    2.184421    1.798685
      3         35           0       -1.343079    3.849965    1.277237
      4          6           0        1.015431    2.520188    2.128342
      5          8           0        1.857540    2.395427    1.283373
      6          6           0       -1.513111    0.377341    0.337084
      7          6           0       -1.491318   -0.237909   -0.947919
      8          6           0       -2.356441   -1.259307   -1.237944
      9          6           0       -3.255412   -1.684570   -0.261512
     10          6           0       -3.301994   -1.098979    1.008106
     11          6           0       -2.445556   -0.078981    1.313319
     12          6           0        1.268465    2.977398    3.527955
     13          1           0        0.086784    1.651212   -0.217531
     14          1           0       -0.987245    1.812081    2.666184
     15          1           0       -0.783405    0.114266   -1.686338
     16          1           0       -2.345299   -1.731656   -2.209083
     17          1           0       -3.938534   -2.492393   -0.490884
     18          1           0       -4.012710   -1.455113    1.739326
     19          1           0       -2.479983    0.376353    2.292424
     20          1           0        0.541618    3.732792    3.827909
     21          1           0        1.145600    2.122908    4.197766
     22          1           0        2.278697    3.366463    3.616579
 ---------------------------------------------------------------------
                    Distance matrix (angstroms):
                    1          2          3          4          5
     1  C    0.000000
     2  C    1.469053   0.000000
     3  Br   2.664438   1.957989   0.000000
     4  C    2.517006   1.544371   2.838178   0.000000
     5  O    2.756755   2.379132   3.515633   1.199452   0.000000
     6  C    1.376510   2.553495   3.601655   3.767483   4.040968
     7  C    2.395362   3.805840   4.656609   4.832626   4.809155
     8  C    3.652963   4.969298   5.784263   6.081611   6.121417
     9  C    4.140238   5.201245   6.054407   6.452247   6.721258
    10  C    3.691258   4.416809   5.329336   5.743993   6.237582
    11  C    2.464034   3.052680   4.080855   4.404359   4.963892
    12  C    3.843862   2.567348   3.556299   1.493983   2.392457
    13  H    1.086166   2.154884   3.018833   2.668450   2.437651
    14  H    2.168015   1.083483   2.491739   2.191210   3.216405
    15  H    2.600257   4.066749   4.801194   4.855518   4.582299
    16  H    4.526752   5.913474   6.656829   6.941610   6.847913
    17  H    5.222675   6.264676   7.077297   7.518516   7.786735
    18  H    4.585438   5.089539   5.956871   6.421570   7.035225
    19  H    2.734439   2.758873   3.793301   4.103763   4.889678
    20  H    4.172568   2.740341   3.173601   2.140896   3.161465
    21  H    4.092340   2.884948   4.207818   2.111230   3.012443
    22  H    4.637663   3.489678   4.338612   2.127645   2.562058
                    6          7          8          9         10
     6  C    0.000000
     7  C    1.424865   0.000000
     8  C    2.422919   1.369601   0.000000
     9  C    2.765033   2.382438   1.393707   0.000000
    10  C    2.414517   2.801076   2.442237   1.398934   0.000000
    11  C    1.425033   2.459477   2.812482   2.390371   1.366395
    12  C    4.967808   6.163444   7.335081   7.520602   6.622355
    13  H    2.118965   2.567616   3.934681   4.722251   4.533162
    14  H    2.785628   4.185486   5.152702   5.093383   4.072046
    15  H    2.167007   1.081865   2.135931   3.372945   3.882691
    16  H    3.409307   2.133331   1.079976   2.150246   3.415531
    17  H    3.847542   3.358637   2.140471   1.082518   2.143305
    18  H    3.401789   3.880759   3.412581   2.151628   1.080107
    19  H    2.181329   3.443051   3.892833   3.372133   2.121740
    20  H    5.259926   6.535123   7.680018   7.777442   6.787537
    21  H    5.002061   6.245388   7.297302   7.331504   6.351030
    22  H    5.836759   6.931029   8.151604   8.436758   7.608444
                   11         12         13         14         15
    11  C    0.000000
    12  C    5.295283   0.000000
    13  H    3.427801   4.145335   0.000000
    14  H    2.744637   2.681201   3.081434   0.000000
    15  H    3.434827   6.292579   2.297135   4.676386   0.000000
    16  H    3.892133   8.255186   4.617912   6.178237   2.473905
    17  H    3.362839   8.554678   5.783370   6.099646   4.263639
    18  H    2.128660   7.123002   5.503127   4.548303   4.962514
    19  H    1.080353   4.726820   3.809650   2.104585   4.333315
    20  H    5.456738   1.090366   4.572246   2.715908   6.727284
    21  H    5.105366   1.092655   4.564914   2.644122   6.509869
    22  H    6.284478   1.086184   4.737824   3.739750   6.933556
                   16         17         18         19         20
    16  H    0.000000
    17  H    2.463600   0.000000
    18  H    4.294959   2.460749   0.000000
    19  H    4.972466   4.254865   2.451416   0.000000
    20  H    8.639431   8.802083   7.212382   4.770060   0.000000
    21  H    8.251773   8.314617   6.741983   4.452599   1.758781
    22  H    9.017234   9.478998   8.145765   5.774009   1.787820
                   21         22
    21  H    0.000000
    22  H    1.779920   0.000000
 Stoichiometry    C10H10BrO(1+)
 Framework group  C1[X(C10H10BrO)]
 Deg. of freedom    60
 Full point group                 C1      NOp   1
 Largest Abelian subgroup         C1      NOp   1
 Largest concise Abelian subgroup C1      NOp   1
                         Standard orientation:                         
 ---------------------------------------------------------------------
 Center     Atomic      Atomic             Coordinates (Angstroms)
 Number     Number       Type             X           Y           Z
 ---------------------------------------------------------------------
      1          6           0        0.200653    0.482617   -0.513716
      2          6           0       -0.975023    0.333366    0.354401
      3         35           0       -1.643160   -1.417257   -0.213607
      4          6           0       -2.080699    1.372827    0.067901
      5          8           0       -2.062282    1.992853   -0.958703
      6          6           0        1.522544    0.299957   -0.176050
      7          6           0        2.494755    0.475681   -1.202776
      8          6           0        3.827016    0.323506   -0.923975
      9          6           0        4.215110   -0.005913    0.373439
     10          6           0        3.284142   -0.186848    1.401825
     11          6           0        1.951266   -0.038538    1.140133
     12          6           0       -3.107504    1.526344    1.142185
     13          1           0       -0.034358    0.768992   -1.534752
     14          1           0       -0.764156    0.252122    1.414057
     15          1           0        2.163714    0.729786   -2.200912
     16          1           0        4.570119    0.456267   -1.696323
     17          1           0        5.268255   -0.125380    0.593572
     18          1           0        3.622451   -0.442026    2.395335
     19          1           0        1.229670   -0.179019    1.931794
     20          1           0       -3.462425    0.553348    1.483076
     21          1           0       -2.640927    2.020934    1.997510
     22          1           0       -3.937039    2.128138    0.782309
 ---------------------------------------------------------------------
 Rotational constants (GHZ):           1.1860262           0.3697666           0.3323018
 Standard basis: def2TZVP (5D, 7F)
 There are   511 symmetry adapted cartesian basis functions of A   symmetry.
 There are   449 symmetry adapted basis functions of A   symmetry.
   449 basis functions,   755 primitive gaussians,   511 cartesian basis functions
    56 alpha electrons       56 beta electrons
       nuclear repulsion energy       925.7058665567 Hartrees.
 NAtoms=   22 NActive=   22 NUniq=   22 SFac= 1.00D+00 NAtFMM=   60 NAOKFM=F Big=F
 Integral buffers will be    131072 words long.
 Raffenetti 2 integral format.
 Two-electron integral symmetry is turned on.
 Nuclear repulsion after empirical dispersion term =      925.6928437189 Hartrees.
 ------------------------------------------------------------------------------
 Polarizable Continuum Model (PCM)
 =================================
 Model                : C-PCM.
 Atomic radii         : UFF (Universal Force Field).
 Polarization charges : Total charges.
 Charge compensation  : None.
 Solution method      : On-the-fly selection.
 Cavity type          : Scaled VdW (van der Waals Surface) (Alpha=1.100).
 Cavity algorithm     : GePol (No added spheres)
                        Default sphere list used, NSphG=   22.
                        Lebedev-Laikov grids with approx.  5.0 points / Ang**2.
                        Smoothing algorithm: York/Karplus (Gamma=1.0000).
                        Polarization charges: spherical gaussians, with
                                              point-specific exponents (IZeta= 3).
                        Self-potential: point-specific (ISelfS= 7).
                        Self-field    : sphere-specific E.n sum rule (ISelfD= 2).
 1st derivatives      : Analytical E(r).r(x)/FMM algorithm (CHGder, D1EAlg=3).
                        Cavity 1st derivative terms included.
 Solvent              : DiChloroEthane, Eps=  10.125000 Eps(inf)=   2.087447
 ------------------------------------------------------------------------------
 One-electron integrals computed using PRISM.
   1 Symmetry operations used in ECPInt.
 ECPInt:  NShTT=   15753 NPrTT=   51378 LenC2=   14556 LenP2D=   35119.
 LDataN:  DoStor=T MaxTD1= 6 Len=  172
 NBasis=   449 RedAO= T EigKep=  8.71D-06  NBF=   449
 NBsUse=   449 1.00D-06 EigRej= -1.00D+00 NBFU=   449
 Initial guess from the checkpoint file:  "d2.chk"
 B after Tr=    -0.000000   -0.000000   -0.000000
         Rot=    0.999980   -0.006254    0.000043   -0.001083 Ang=  -0.73 deg.
 ExpMin= 9.52D-02 ExpMax= 5.65D+05 ExpMxC= 5.46D+03 IAcc=3 IRadAn=         5 AccDes= 0.00D+00
 Harris functional with IExCor= 4639 and IRadAn=       5 diagonalized for initial guess.
 HarFok:  IExCor= 4639 AccDes= 0.00D+00 IRadAn=         5 IDoV= 1 UseB2=F ITyADJ=14
 ICtDFT=  3500011 ScaDFX=  1.000000  1.000000  1.000000  1.000000
 FoFCou: FMM=F IPFlag=           0 FMFlag=      100000 FMFlg1=           0
         NFxFlg=           0 DoJE=T BraDBF=F KetDBF=T FulRan=T
         wScrn=  0.000000 ICntrl=       500 IOpCl=  0 I1Cent=   200000004 NGrid=           0
         NMat0=    1 NMatS0=      1 NMatT0=    0 NMatD0=    1 NMtDS0=    0 NMtDT0=    0
 Petite list used in FoFCou.
 Requested convergence on RMS density matrix=1.00D-08 within 128 cycles.
 Requested convergence on MAX density matrix=1.00D-06.
 Requested convergence on             energy=1.00D-06.
 No special actions if energy rises.
 Inv3:  Mode=1 IEnd=    10898508.
 Iteration    1 A*A^-1 deviation from unit magnitude is 3.89D-15 for   1892.
 Iteration    1 A*A^-1 deviation from orthogonality  is 2.09D-15 for   1114    881.
 Iteration    1 A^-1*A deviation from unit magnitude is 4.00D-15 for   1868.
 Iteration    1 A^-1*A deviation from orthogonality  is 1.87D-15 for   1012    477.
 Error on total polarization charges =  0.01059
 SCF Done:  E(RwB97XD) =  -3036.30955321     A.U. after   11 cycles
            NFock= 11  Conv=0.75D-08     -V/T= 2.0019
   1 Symmetry operations used in ECPInt.
 ECPInt:  NShTT=   15753 NPrTT=   51378 LenC2=   14556 LenP2D=   35119.
 LDataN:  DoStor=T MaxTD1= 7 Len=  274
 D1PCM: C-PCM CHGder 1st derivatives, ID1Alg=3 FixD1E=F DoIter=F DoCFld=F I1PDM=0.
 Calling FoFJK, ICntrl=      2127 FMM=F ISym2X=0 I1Cent= 0 IOpClX= 0 NMat=1 NMatS=1 NMatT=0.
 ***** Axes restored to original set *****
 -------------------------------------------------------------------
 Center     Atomic                   Forces (Hartrees/Bohr)
 Number     Number              X              Y              Z
 -------------------------------------------------------------------
      1        6           0.000456236    0.000764042    0.000167879
      2        6           0.000188846   -0.001769263    0.000004633
      3       35          -0.000286760    0.000868219   -0.000334571
      4        6          -0.001229917    0.001398867    0.001471384
      5        8           0.001415807   -0.000485274   -0.001337572
      6        6          -0.000172945   -0.000314493    0.000346472
      7        6          -0.000008853   -0.000044023   -0.000337438
      8        6           0.000168699    0.000118785    0.000089265
      9        6          -0.000281941   -0.000294047   -0.000024522
     10        6           0.000088195    0.000035167   -0.000108254
     11        6          -0.000043816    0.000160149    0.000203055
     12        6           0.000197667   -0.000259590   -0.000431973
     13        1          -0.000035115    0.000115820   -0.000181550
     14        1          -0.000157247    0.000014187    0.000258569
     15        1           0.000170594    0.000085314   -0.000081475
     16        1          -0.000027202   -0.000128551   -0.000220735
     17        1          -0.000126945   -0.000127206   -0.000038352
     18        1          -0.000159989   -0.000095517    0.000168365
     19        1          -0.000012907    0.000116743    0.000148313
     20        1          -0.000247442    0.000069906    0.000037605
     21        1          -0.000124246   -0.000252699    0.000208920
     22        1           0.000229281    0.000023463   -0.000008019
 -------------------------------------------------------------------
 Cartesian Forces:  Max     0.001769263 RMS     0.000495231

 GradGradGradGradGradGradGradGradGradGradGradGradGradGradGradGradGradGrad
 Berny optimization.
 Using GEDIIS/GDIIS optimizer.
 FormGI is forming the generalized inverse of G from B-inverse, IUseBI=4.
 Internal  Forces:  Max     0.001982794 RMS     0.000265188
 Search for a local minimum.
 Step number   5 out of a maximum of  114
 All quantities printed in internal units (Hartrees-Bohrs-Radians)
 Mixed Optimization -- En-DIIS/RFO-DIIS
 Swapping is turned off.
 Update second derivatives using D2CorX and points    1    2    3    4    5
 DE= -1.64D-04 DEPred=-1.81D-04 R= 9.04D-01
 TightC=F SS=  1.41D+00  RLast= 1.12D-01 DXNew= 2.6197D-01 3.3700D-01
 Trust test= 9.04D-01 RLast= 1.12D-01 DXMaxT set to 2.62D-01
 ITU=  1 -1  1  1  0
     Eigenvalues ---    0.00238   0.00859   0.01256   0.01668   0.01724
     Eigenvalues ---    0.01917   0.02016   0.02061   0.02068   0.02181
     Eigenvalues ---    0.02184   0.02267   0.02287   0.02306   0.03071
     Eigenvalues ---    0.03123   0.07197   0.07453   0.07721   0.11958
     Eigenvalues ---    0.15536   0.15993   0.16000   0.16000   0.16000
     Eigenvalues ---    0.16000   0.16000   0.16026   0.16353   0.16644
     Eigenvalues ---    0.18203   0.21117   0.22001   0.22009   0.22188
     Eigenvalues ---    0.23557   0.24949   0.25004   0.25522   0.27867
     Eigenvalues ---    0.33279   0.33883   0.34259   0.34778   0.34790
     Eigenvalues ---    0.34921   0.35217   0.35264   0.35427   0.35450
     Eigenvalues ---    0.35462   0.35791   0.38671   0.40089   0.43753
     Eigenvalues ---    0.44431   0.47700   0.47892   0.50746   1.02309
 En-DIIS/RFO-DIIS/Sim-DIIS IScMMF=       -3 using points:     5    4    3    2
 RFO step:  Lambda=-3.11322924D-05.
 DidBck=T Rises=F RFO-DIIS coefs:    0.41208    0.14883    0.45499   -0.01589
 Iteration  1 RMS(Cart)=  0.00726822 RMS(Int)=  0.00003507
 Iteration  2 RMS(Cart)=  0.00004783 RMS(Int)=  0.00001795
 Iteration  3 RMS(Cart)=  0.00000000 RMS(Int)=  0.00001795
 Variable       Old X    -DE/DX   Delta X   Delta X   Delta X     New X
                                 (Linear)    (Quad)   (Total)
    R1        2.77611  -0.00030  -0.00242   0.00072  -0.00170   2.77441
    R2        2.60123   0.00059   0.00169   0.00011   0.00180   2.60303
    R3        2.05256   0.00014  -0.00017   0.00063   0.00045   2.05301
    R4        3.70006   0.00096   0.00759   0.00013   0.00772   3.70778
    R5        2.91844   0.00031  -0.00008   0.00089   0.00081   2.91925
    R6        2.04749   0.00028  -0.00061   0.00122   0.00061   2.04810
    R7        2.26664   0.00198   0.00011   0.00168   0.00179   2.26843
    R8        2.82322  -0.00029  -0.00114   0.00014  -0.00100   2.82222
    R9        2.69260   0.00042  -0.00069   0.00131   0.00063   2.69323
   R10        2.69292   0.00026  -0.00108   0.00132   0.00024   2.69316
   R11        2.58817   0.00024   0.00028   0.00036   0.00064   2.58881
   R12        2.04443   0.00020  -0.00014   0.00069   0.00055   2.04498
   R13        2.63372   0.00037  -0.00029   0.00106   0.00076   2.63449
   R14        2.04086   0.00026  -0.00003   0.00074   0.00070   2.04156
   R15        2.64360   0.00031  -0.00038   0.00098   0.00059   2.64420
   R16        2.04566   0.00018  -0.00014   0.00064   0.00050   2.04616
   R17        2.58211   0.00037   0.00034   0.00055   0.00089   2.58300
   R18        2.04111   0.00025  -0.00002   0.00070   0.00068   2.04179
   R19        2.04157   0.00018  -0.00009   0.00062   0.00053   2.04210
   R20        2.06049   0.00023  -0.00002   0.00072   0.00070   2.06119
   R21        2.06482   0.00034   0.00027   0.00074   0.00101   2.06583
   R22        2.05259   0.00022  -0.00023   0.00080   0.00058   2.05317
    A1        2.22698  -0.00026  -0.00019  -0.00091  -0.00109   2.22589
    A2        1.99230   0.00017  -0.00012   0.00101   0.00089   1.99319
    A3        2.06390   0.00009   0.00031  -0.00011   0.00020   2.06410
    A4        1.76450  -0.00002  -0.00599   0.00186  -0.00414   1.76036
    A5        1.97682   0.00011   0.00348  -0.00139   0.00214   1.97896
    A6        2.01507   0.00004   0.00145   0.00108   0.00260   2.01767
    A7        1.87933  -0.00022  -0.00435   0.00064  -0.00373   1.87560
    A8        1.85781   0.00009  -0.00039  -0.00004  -0.00045   1.85736
    A9        1.95114  -0.00002   0.00365  -0.00165   0.00205   1.95319
   A10        2.08945  -0.00002  -0.00020  -0.00004  -0.00015   2.08930
   A11        2.01288  -0.00002  -0.00061   0.00002  -0.00050   2.01238
   A12        2.18082   0.00004   0.00048   0.00001   0.00058   2.18140
   A13        2.05118  -0.00009  -0.00016  -0.00032  -0.00048   2.05070
   A14        2.14958   0.00007   0.00002   0.00020   0.00022   2.14980
   A15        2.08238   0.00002   0.00012   0.00014   0.00026   2.08263
   A16        2.09824  -0.00002   0.00002  -0.00022  -0.00020   2.09805
   A17        2.07715  -0.00006   0.00003  -0.00021  -0.00018   2.07697
   A18        2.10779   0.00008  -0.00005   0.00043   0.00038   2.10817
   A19        2.07903   0.00008   0.00009   0.00031   0.00040   2.07943
   A20        2.10607  -0.00001   0.00000  -0.00011  -0.00011   2.10596
   A21        2.09809  -0.00007  -0.00010  -0.00020  -0.00030   2.09779
   A22        2.12891  -0.00014  -0.00043  -0.00026  -0.00069   2.12822
   A23        2.07864   0.00007   0.00020   0.00014   0.00035   2.07899
   A24        2.07563   0.00007   0.00022   0.00012   0.00034   2.07597
   A25        2.08786   0.00013   0.00024   0.00034   0.00059   2.08845
   A26        2.09243  -0.00008   0.00000  -0.00025  -0.00024   2.09219
   A27        2.10289  -0.00005  -0.00025  -0.00010  -0.00034   2.10255
   A28        2.08995  -0.00007  -0.00005  -0.00031  -0.00037   2.08958
   A29        2.10221   0.00001   0.00018   0.00003   0.00021   2.10242
   A30        2.09103   0.00006  -0.00012   0.00028   0.00015   2.09119
   A31        1.93567  -0.00010  -0.00010  -0.00004  -0.00014   1.93553
   A32        1.89222  -0.00002  -0.00074  -0.00025  -0.00099   1.89123
   A33        1.92153   0.00001   0.00096  -0.00029   0.00067   1.92220
   A34        1.87359  -0.00004  -0.00079  -0.00018  -0.00097   1.87262
   A35        1.92772   0.00011   0.00073   0.00038   0.00110   1.92883
   A36        1.91207   0.00004  -0.00014   0.00040   0.00026   1.91233
    D1       -1.78171  -0.00016  -0.00039  -0.00291  -0.00330  -1.78501
    D2        2.49595   0.00007   0.00664  -0.00413   0.00249   2.49845
    D3        0.21470  -0.00005  -0.00390  -0.00136  -0.00525   0.20945
    D4        1.35748  -0.00015   0.00015  -0.00228  -0.00213   1.35536
    D5       -0.64804   0.00008   0.00717  -0.00349   0.00367  -0.64438
    D6       -2.92930  -0.00004  -0.00337  -0.00072  -0.00408  -2.93337
    D7        3.11863   0.00009   0.00192   0.00222   0.00414   3.12278
    D8       -0.03447   0.00012   0.00066   0.00354   0.00420  -0.03028
    D9       -0.02047   0.00008   0.00137   0.00155   0.00292  -0.01755
   D10        3.10961   0.00011   0.00010   0.00287   0.00298   3.11259
   D11        0.28199  -0.00015   0.00168   0.00249   0.00419   0.28617
   D12       -2.85096   0.00008   0.00732   0.00298   0.01032  -2.84064
   D13       -1.65379  -0.00005   0.00965   0.00059   0.01024  -1.64355
   D14        1.49645   0.00018   0.01530   0.00108   0.01638   1.51283
   D15        2.59473  -0.00001   0.01075   0.00117   0.01191   2.60664
   D16       -0.53821   0.00022   0.01640   0.00167   0.01804  -0.52017
   D17       -0.81644  -0.00007   0.00103  -0.00200  -0.00098  -0.81742
   D18        1.23643  -0.00018  -0.00044  -0.00240  -0.00284   1.23359
   D19       -2.95532  -0.00015  -0.00049  -0.00224  -0.00274  -2.95805
   D20        2.33431   0.00018   0.00699  -0.00147   0.00553   2.33984
   D21       -1.89600   0.00006   0.00553  -0.00187   0.00367  -1.89233
   D22        0.19544   0.00010   0.00548  -0.00172   0.00377   0.19921
   D23        3.12771  -0.00001  -0.00300   0.00163  -0.00137   3.12634
   D24       -0.01413   0.00003  -0.00193   0.00188  -0.00005  -0.01418
   D25       -0.00283  -0.00003  -0.00178   0.00036  -0.00142  -0.00425
   D26        3.13852   0.00001  -0.00072   0.00062  -0.00010   3.13842
   D27       -3.12715  -0.00001   0.00215  -0.00143   0.00072  -3.12643
   D28        0.01494   0.00001   0.00256  -0.00097   0.00158   0.01652
   D29        0.00273   0.00002   0.00087  -0.00009   0.00077   0.00350
   D30       -3.13837   0.00003   0.00127   0.00036   0.00163  -3.13673
   D31        0.00126   0.00003   0.00155  -0.00035   0.00120   0.00246
   D32       -3.14019   0.00002   0.00100  -0.00028   0.00072  -3.13946
   D33       -3.14009  -0.00001   0.00046  -0.00060  -0.00014  -3.14023
   D34        0.00165  -0.00002  -0.00008  -0.00054  -0.00062   0.00103
   D35        0.00044  -0.00001  -0.00042   0.00006  -0.00036   0.00009
   D36       -3.14081  -0.00002  -0.00065  -0.00002  -0.00068  -3.14148
   D37       -3.14130   0.00000   0.00012  -0.00000   0.00012  -3.14118
   D38        0.00064  -0.00000  -0.00011  -0.00009  -0.00020   0.00044
   D39       -0.00053  -0.00000  -0.00050   0.00021  -0.00029  -0.00082
   D40        3.14132  -0.00000  -0.00040   0.00001  -0.00038   3.14094
   D41        3.14072   0.00000  -0.00026   0.00029   0.00003   3.14075
   D42       -0.00061   0.00000  -0.00016   0.00010  -0.00006  -0.00068
   D43       -0.00108   0.00000   0.00025  -0.00019   0.00006  -0.00102
   D44        3.14002  -0.00001  -0.00015  -0.00064  -0.00079   3.13923
   D45        3.14025   0.00000   0.00015   0.00001   0.00016   3.14041
   D46       -0.00184  -0.00001  -0.00025  -0.00044  -0.00070  -0.00253
         Item               Value     Threshold  Converged?
 Maximum Force            0.001983     0.000450     NO 
 RMS     Force            0.000265     0.000300     YES
 Maximum Displacement     0.030824     0.001800     NO 
 RMS     Displacement     0.007271     0.001200     NO 
 Predicted change in Energy=-1.554663D-05
 GradGradGradGradGradGradGradGradGradGradGradGradGradGradGradGradGradGrad

                          Input orientation:                          
 ---------------------------------------------------------------------
 Center     Atomic      Atomic             Coordinates (Angstroms)
 Number     Number       Type             X           Y           Z
 ---------------------------------------------------------------------
      1          6           0       -0.608607    1.390216    0.572681
      2          6           0       -0.455099    2.185814    1.796991
      3         35           0       -1.343194    3.853498    1.267977
      4          6           0        1.015088    2.527605    2.125832
      5          8           0        1.856782    2.411738    1.277841
      6          6           0       -1.513795    0.379047    0.336931
      7          6           0       -1.490295   -0.238987   -0.947073
      8          6           0       -2.354090   -1.262460   -1.235344
      9          6           0       -3.254423   -1.686331   -0.258985
     10          6           0       -3.302872   -1.096921    1.009142
     11          6           0       -2.447350   -0.075198    1.313259
     12          6           0        1.268862    2.970408    3.529373
     13          1           0        0.085592    1.654438   -0.220132
     14          1           0       -0.988466    1.816798    2.665314
     15          1           0       -0.781316    0.112065   -1.685434
     16          1           0       -2.341268   -1.737480   -2.205573
     17          1           0       -3.936898   -2.495372   -0.487235
     18          1           0       -4.014693   -1.451515    1.740569
     19          1           0       -2.484064    0.383301    2.291114
     20          1           0        0.538099    3.718412    3.839503
     21          1           0        1.150425    2.107136    4.189526
     22          1           0        2.277821    3.362908    3.621054
 ---------------------------------------------------------------------
                    Distance matrix (angstroms):
                    1          2          3          4          5
     1  C    0.000000
     2  C    1.468155   0.000000
     3  Br   2.662859   1.962075   0.000000
     4  C    2.518396   1.544800   2.838204   0.000000
     5  O    2.760236   2.380201   3.509789   1.200402   0.000000
     6  C    1.377463   2.552846   3.601078   3.769843   4.046966
     7  C    2.396106   3.805414   4.655805   4.834637   4.814511
     8  C    3.654087   4.969086   5.784597   6.083869   6.127584
     9  C    4.142119   5.201611   6.055915   6.455488   6.729073
    10  C    3.692616   4.416658   5.330477   5.747083   6.245392
    11  C    2.465131   3.052087   4.081159   4.407191   4.971082
    12  C    3.842386   2.566862   3.566034   1.493454   2.393149
    13  H    1.086406   2.154877   3.015255   2.670193   2.440193
    14  H    2.169189   1.083808   2.495302   2.193288   3.220943
    15  H    2.600496   4.066219   4.799653   4.856712   4.585745
    16  H    4.528056   5.913577   6.657382   6.943856   6.853744
    17  H    5.224819   6.265311   7.079281   7.522007   7.794996
    18  H    4.587027   5.089602   5.958474   6.424991   7.043654
    19  H    2.735733   2.758607   3.793503   4.107240   4.897370
    20  H    4.172237   2.739919   3.189084   2.140609   3.163611
    21  H    4.085308   2.882381   4.219404   2.110436   3.011583
    22  H    4.638487   3.490216   4.346194   2.127890   2.563717
                    6          7          8          9         10
     6  C    0.000000
     7  C    1.425196   0.000000
     8  C    2.423363   1.369942   0.000000
     9  C    2.765988   2.383363   1.394110   0.000000
    10  C    2.414777   2.801475   2.442398   1.399248   0.000000
    11  C    1.425160   2.460057   2.813124   2.391457   1.366866
    12  C    4.964879   6.160498   7.331131   7.516447   6.617816
    13  H    2.120136   2.568447   3.935860   4.724187   4.534620
    14  H    2.786480   4.186577   5.153823   5.094899   4.072977
    15  H    2.167433   1.082158   2.136708   3.374203   3.883379
    16  H    3.410091   2.133884   1.080348   2.150738   3.416048
    17  H    3.848762   3.359850   2.141266   1.082783   2.144014
    18  H    3.402301   3.881524   3.413122   2.152061   1.080469
    19  H    2.181805   3.443933   3.893755   3.373401   2.122488
    20  H    5.256390   6.533506   7.676452   7.771234   6.778749
    21  H    4.992680   6.233967   7.284574   7.319995   6.341347
    22  H    5.836544   6.931098   8.150658   8.435356   7.606332
                   11         12         13         14         15
    11  C    0.000000
    12  C    5.291229   0.000000
    13  H    3.429099   4.146167   0.000000
    14  H    2.745185   2.678235   3.083142   0.000000
    15  H    3.435535   6.290276   2.297292   4.677397   0.000000
    16  H    3.893150   8.251476   4.619170   6.179685   2.474836
    17  H    3.364191   8.550312   5.785559   6.101363   4.265221
    18  H    2.129180   7.118228   5.504873   4.549183   4.963568
    19  H    1.080634   4.723438   3.811205   2.105173   4.334266
    20  H    5.448513   1.090736   4.576613   2.706521   6.728412
    21  H    5.097007   1.093191   4.558935   2.642418   6.498237
    22  H    6.282812   1.086489   4.741250   3.737984   6.934343
                   16         17         18         19         20
    16  H    0.000000
    17  H    2.464370   0.000000
    18  H    4.295831   2.461463   0.000000
    19  H    4.973761   4.256373   2.452034   0.000000
    20  H    8.637155   8.795304   7.201499   4.759616   0.000000
    21  H    8.238342   8.302773   6.733486   4.448043   1.758883
    22  H    9.016625   9.477353   8.143133   5.772551   1.789060
                   21         22
    21  H    0.000000
    22  H    1.780770   0.000000
 Stoichiometry    C10H10BrO(1+)
 Framework group  C1[X(C10H10BrO)]
 Deg. of freedom    60
 Full point group                 C1      NOp   1
 Largest Abelian subgroup         C1      NOp   1
 Largest concise Abelian subgroup C1      NOp   1
                         Standard orientation:                         
 ---------------------------------------------------------------------
 Center     Atomic      Atomic             Coordinates (Angstroms)
 Number     Number       Type             X           Y           Z
 ---------------------------------------------------------------------
      1          6           0        0.199154    0.478826   -0.515871
      2          6           0       -0.974286    0.337247    0.355032
      3         35           0       -1.642630   -1.419529   -0.207813
      4          6           0       -2.083936    1.371177    0.061650
      5          8           0       -2.072402    1.978619   -0.973650
      6          6           0        1.522124    0.298367   -0.177362
      7          6           0        2.493784    0.470111   -1.205742
      8          6           0        3.826700    0.321620   -0.926414
      9          6           0        4.216252   -0.001515    0.372576
     10          6           0        3.285294   -0.179283    1.401950
     11          6           0        1.951605   -0.033909    1.140295
     12          6           0       -3.099604    1.541649    1.143205
     13          1           0       -0.036652    0.757720   -1.539048
     14          1           0       -0.763940    0.259647    1.415396
     15          1           0        2.161653    0.719442   -2.205037
     16          1           0        4.569586    0.452056   -1.699886
     17          1           0        5.269884   -0.118680    0.592920
     18          1           0        3.624274   -0.429949    2.396772
     19          1           0        1.230294   -0.172776    1.932883
     20          1           0       -3.450734    0.573777    1.503254
     21          1           0       -2.622979    2.048601    1.986350
     22          1           0       -3.932665    2.139000    0.783149
 ---------------------------------------------------------------------
 Rotational constants (GHZ):           1.1842610           0.3696169           0.3322806
 Standard basis: def2TZVP (5D, 7F)
 There are   511 symmetry adapted cartesian basis functions of A   symmetry.
 There are   449 symmetry adapted basis functions of A   symmetry.
   449 basis functions,   755 primitive gaussians,   511 cartesian basis functions
    56 alpha electrons       56 beta electrons
       nuclear repulsion energy       925.4028760599 Hartrees.
 NAtoms=   22 NActive=   22 NUniq=   22 SFac= 1.00D+00 NAtFMM=   60 NAOKFM=F Big=F
 Integral buffers will be    131072 words long.
 Raffenetti 2 integral format.
 Two-electron integral symmetry is turned on.
 Nuclear repulsion after empirical dispersion term =      925.3898522841 Hartrees.
 ------------------------------------------------------------------------------
 Polarizable Continuum Model (PCM)
 =================================
 Model                : C-PCM.
 Atomic radii         : UFF (Universal Force Field).
 Polarization charges : Total charges.
 Charge compensation  : None.
 Solution method      : On-the-fly selection.
 Cavity type          : Scaled VdW (van der Waals Surface) (Alpha=1.100).
 Cavity algorithm     : GePol (No added spheres)
                        Default sphere list used, NSphG=   22.
                        Lebedev-Laikov grids with approx.  5.0 points / Ang**2.
                        Smoothing algorithm: York/Karplus (Gamma=1.0000).
                        Polarization charges: spherical gaussians, with
                                              point-specific exponents (IZeta= 3).
                        Self-potential: point-specific (ISelfS= 7).
                        Self-field    : sphere-specific E.n sum rule (ISelfD= 2).
 1st derivatives      : Analytical E(r).r(x)/FMM algorithm (CHGder, D1EAlg=3).
                        Cavity 1st derivative terms included.
 Solvent              : DiChloroEthane, Eps=  10.125000 Eps(inf)=   2.087447
 ------------------------------------------------------------------------------
 One-electron integrals computed using PRISM.
   1 Symmetry operations used in ECPInt.
 ECPInt:  NShTT=   15753 NPrTT=   51378 LenC2=   14559 LenP2D=   35123.
 LDataN:  DoStor=T MaxTD1= 6 Len=  172
 NBasis=   449 RedAO= T EigKep=  8.74D-06  NBF=   449
 NBsUse=   449 1.00D-06 EigRej= -1.00D+00 NBFU=   449
 Initial guess from the checkpoint file:  "d2.chk"
 B after Tr=     0.000000    0.000000    0.000000
         Rot=    0.999996    0.002689   -0.000312   -0.000127 Ang=   0.31 deg.
 ExpMin= 9.52D-02 ExpMax= 5.65D+05 ExpMxC= 5.46D+03 IAcc=3 IRadAn=         5 AccDes= 0.00D+00
 Harris functional with IExCor= 4639 and IRadAn=       5 diagonalized for initial guess.
 HarFok:  IExCor= 4639 AccDes= 0.00D+00 IRadAn=         5 IDoV= 1 UseB2=F ITyADJ=14
 ICtDFT=  3500011 ScaDFX=  1.000000  1.000000  1.000000  1.000000
 FoFCou: FMM=F IPFlag=           0 FMFlag=      100000 FMFlg1=           0
         NFxFlg=           0 DoJE=T BraDBF=F KetDBF=T FulRan=T
         wScrn=  0.000000 ICntrl=       500 IOpCl=  0 I1Cent=   200000004 NGrid=           0
         NMat0=    1 NMatS0=      1 NMatT0=    0 NMatD0=    1 NMtDS0=    0 NMtDT0=    0
 Petite list used in FoFCou.
 Requested convergence on RMS density matrix=1.00D-08 within 128 cycles.
 Requested convergence on MAX density matrix=1.00D-06.
 Requested convergence on             energy=1.00D-06.
 No special actions if energy rises.
 Inv3:  Mode=1 IEnd=    11001675.
 Iteration    1 A*A^-1 deviation from unit magnitude is 4.66D-15 for   1903.
 Iteration    1 A*A^-1 deviation from orthogonality  is 2.04D-15 for   1117    883.
 Iteration    1 A^-1*A deviation from unit magnitude is 4.44D-15 for   1897.
 Iteration    1 A^-1*A deviation from orthogonality  is 1.60D-15 for    879    315.
 Error on total polarization charges =  0.01060
 SCF Done:  E(RwB97XD) =  -3036.30957017     A.U. after   10 cycles
            NFock= 10  Conv=0.78D-08     -V/T= 2.0019
   1 Symmetry operations used in ECPInt.
 ECPInt:  NShTT=   15753 NPrTT=   51378 LenC2=   14559 LenP2D=   35123.
 LDataN:  DoStor=T MaxTD1= 7 Len=  274
 D1PCM: C-PCM CHGder 1st derivatives, ID1Alg=3 FixD1E=F DoIter=F DoCFld=F I1PDM=0.
 Calling FoFJK, ICntrl=      2127 FMM=F ISym2X=0 I1Cent= 0 IOpClX= 0 NMat=1 NMatS=1 NMatT=0.
 ***** Axes restored to original set *****
 -------------------------------------------------------------------
 Center     Atomic                   Forces (Hartrees/Bohr)
 Number     Number              X              Y              Z
 -------------------------------------------------------------------
      1        6           0.000084899    0.000000432   -0.000005425
      2        6          -0.000115902   -0.000188822   -0.000114056
      3       35           0.000067400    0.000011852    0.000047448
      4        6          -0.000236682    0.000149443    0.000361857
      5        8           0.000194897   -0.000032001   -0.000236727
      6        6           0.000091561    0.000031837    0.000163974
      7        6          -0.000086387   -0.000103626   -0.000104453
      8        6           0.000077975    0.000079285    0.000063680
      9        6          -0.000024513   -0.000019787    0.000011249
     10        6           0.000083128    0.000068582   -0.000042449
     11        6          -0.000080906   -0.000042268    0.000013008
     12        6           0.000098507   -0.000014130   -0.000147139
     13        1          -0.000080788    0.000044437   -0.000009008
     14        1           0.000000270    0.000055008   -0.000023062
     15        1          -0.000000854    0.000002461    0.000030327
     16        1          -0.000017085   -0.000009923    0.000003174
     17        1           0.000009931    0.000018230    0.000008710
     18        1          -0.000001452   -0.000007100    0.000003382
     19        1          -0.000001592    0.000000245   -0.000024670
     20        1          -0.000029725   -0.000008772   -0.000015958
     21        1          -0.000033464   -0.000015990    0.000023314
     22        1           0.000000781   -0.000019395   -0.000007177
 -------------------------------------------------------------------
 Cartesian Forces:  Max     0.000361857 RMS     0.000090053

 GradGradGradGradGradGradGradGradGradGradGradGradGradGradGradGradGradGrad
 Berny optimization.
 Using GEDIIS/GDIIS optimizer.
 FormGI is forming the generalized inverse of G from B-inverse, IUseBI=4.
 Internal  Forces:  Max     0.000303417 RMS     0.000047223
 Search for a local minimum.
 Step number   6 out of a maximum of  114
 All quantities printed in internal units (Hartrees-Bohrs-Radians)
 Mixed Optimization -- En-DIIS/RFO-DIIS
 Swapping is turned off.
 Update second derivatives using D2CorX and points    1    2    3    4    5
                                                      6
 DE= -1.70D-05 DEPred=-1.55D-05 R= 1.09D+00
 TightC=F SS=  1.41D+00  RLast= 3.63D-02 DXNew= 4.4058D-01 1.0891D-01
 Trust test= 1.09D+00 RLast= 3.63D-02 DXMaxT set to 2.62D-01
 ITU=  1  1 -1  1  1  0
     Eigenvalues ---    0.00245   0.00853   0.01216   0.01669   0.01722
     Eigenvalues ---    0.01915   0.02013   0.02061   0.02069   0.02181
     Eigenvalues ---    0.02184   0.02239   0.02269   0.02287   0.03038
     Eigenvalues ---    0.03099   0.07197   0.07445   0.07703   0.11827
     Eigenvalues ---    0.15725   0.15956   0.15999   0.16000   0.16000
     Eigenvalues ---    0.16000   0.16003   0.16016   0.16339   0.16967
     Eigenvalues ---    0.18022   0.21075   0.21905   0.22007   0.22017
     Eigenvalues ---    0.23570   0.24972   0.24993   0.25482   0.27978
     Eigenvalues ---    0.33085   0.33851   0.34258   0.34772   0.34825
     Eigenvalues ---    0.35074   0.35235   0.35332   0.35426   0.35432
     Eigenvalues ---    0.35593   0.36494   0.38502   0.40097   0.44052
     Eigenvalues ---    0.44874   0.47720   0.48222   0.53136   0.98181
 En-DIIS/RFO-DIIS/Sim-DIIS IScMMF=       -3 using points:     6    5    4    3    2
 RFO step:  Lambda=-1.38157280D-06.
 DidBck=F Rises=F RFO-DIIS coefs:    1.58204   -0.24958   -0.09106   -0.25558    0.01418
 Iteration  1 RMS(Cart)=  0.00216160 RMS(Int)=  0.00001019
 Iteration  2 RMS(Cart)=  0.00000230 RMS(Int)=  0.00001010
 Iteration  3 RMS(Cart)=  0.00000000 RMS(Int)=  0.00001010
 Variable       Old X    -DE/DX   Delta X   Delta X   Delta X     New X
                                 (Linear)    (Quad)   (Total)
    R1        2.77441  -0.00011   0.00030  -0.00061  -0.00031   2.77410
    R2        2.60303  -0.00008   0.00012  -0.00030  -0.00017   2.60286
    R3        2.05301  -0.00003   0.00036  -0.00045  -0.00008   2.05292
    R4        3.70778  -0.00003   0.00030  -0.00043  -0.00013   3.70765
    R5        2.91925  -0.00001   0.00050  -0.00045   0.00006   2.91930
    R6        2.04810  -0.00004   0.00069  -0.00075  -0.00006   2.04804
    R7        2.26843   0.00030   0.00101  -0.00057   0.00044   2.26887
    R8        2.82222  -0.00014   0.00002  -0.00050  -0.00048   2.82174
    R9        2.69323   0.00005   0.00074  -0.00049   0.00025   2.69348
   R10        2.69316  -0.00001   0.00073  -0.00065   0.00008   2.69324
   R11        2.58881  -0.00011   0.00021  -0.00043  -0.00022   2.58859
   R12        2.04498  -0.00002   0.00040  -0.00042  -0.00002   2.04496
   R13        2.63449  -0.00003   0.00061  -0.00061  -0.00001   2.63448
   R14        2.04156   0.00000   0.00043  -0.00038   0.00005   2.04161
   R15        2.64420  -0.00004   0.00055  -0.00058  -0.00003   2.64417
   R16        2.04616  -0.00002   0.00037  -0.00040  -0.00004   2.04613
   R17        2.58300  -0.00008   0.00032  -0.00047  -0.00014   2.58286
   R18        2.04179   0.00000   0.00041  -0.00037   0.00005   2.04184
   R19        2.04210  -0.00002   0.00036  -0.00040  -0.00005   2.04206
   R20        2.06119   0.00001   0.00043  -0.00034   0.00008   2.06128
   R21        2.06583   0.00003   0.00045  -0.00030   0.00015   2.06598
   R22        2.05317  -0.00001   0.00047  -0.00046   0.00000   2.05317
    A1        2.22589  -0.00006  -0.00056   0.00018  -0.00038   2.22551
    A2        1.99319   0.00004   0.00062  -0.00042   0.00020   1.99339
    A3        2.06410   0.00003  -0.00006   0.00024   0.00017   2.06428
    A4        1.76036   0.00012   0.00077   0.00024   0.00102   1.76138
    A5        1.97896  -0.00007  -0.00063   0.00020  -0.00045   1.97851
    A6        2.01767   0.00003   0.00083  -0.00056   0.00025   2.01792
    A7        1.87560  -0.00009   0.00012  -0.00071  -0.00058   1.87502
    A8        1.85736  -0.00001  -0.00011   0.00006  -0.00004   1.85732
    A9        1.95319   0.00003  -0.00076   0.00066  -0.00012   1.95306
   A10        2.08930  -0.00006  -0.00000  -0.00015  -0.00020   2.08910
   A11        2.01238   0.00005   0.00005   0.00024   0.00024   2.01262
   A12        2.18140   0.00000   0.00011  -0.00009  -0.00004   2.18136
   A13        2.05070  -0.00003  -0.00021   0.00006  -0.00015   2.05054
   A14        2.14980   0.00005   0.00013   0.00011   0.00023   2.15003
   A15        2.08263  -0.00002   0.00010  -0.00017  -0.00007   2.08256
   A16        2.09805   0.00000  -0.00013   0.00017   0.00004   2.09809
   A17        2.07697  -0.00003  -0.00012  -0.00010  -0.00022   2.07675
   A18        2.10817   0.00002   0.00026  -0.00008   0.00018   2.10835
   A19        2.07943   0.00001   0.00019  -0.00016   0.00003   2.07946
   A20        2.10596   0.00001  -0.00007   0.00017   0.00011   2.10607
   A21        2.09779  -0.00002  -0.00012  -0.00001  -0.00014   2.09766
   A22        2.12822  -0.00001  -0.00017   0.00009  -0.00008   2.12814
   A23        2.07899   0.00000   0.00010  -0.00006   0.00004   2.07903
   A24        2.07597   0.00000   0.00008  -0.00003   0.00004   2.07602
   A25        2.08845   0.00003   0.00022  -0.00004   0.00018   2.08862
   A26        2.09219  -0.00002  -0.00015  -0.00001  -0.00015   2.09203
   A27        2.10255  -0.00001  -0.00007   0.00005  -0.00002   2.10253
   A28        2.08958  -0.00002  -0.00020   0.00010  -0.00010   2.08949
   A29        2.10242   0.00001   0.00004  -0.00005  -0.00001   2.10241
   A30        2.09119   0.00001   0.00016  -0.00005   0.00010   2.09129
   A31        1.93553  -0.00004  -0.00002  -0.00034  -0.00037   1.93516
   A32        1.89123   0.00001  -0.00020   0.00019  -0.00001   1.89121
   A33        1.92220   0.00001  -0.00012   0.00028   0.00016   1.92235
   A34        1.87262  -0.00001  -0.00015  -0.00013  -0.00028   1.87234
   A35        1.92883   0.00003   0.00027   0.00004   0.00030   1.92913
   A36        1.91233   0.00001   0.00023  -0.00005   0.00018   1.91251
    D1       -1.78501  -0.00007  -0.00177  -0.00111  -0.00289  -1.78790
    D2        2.49845  -0.00000  -0.00210  -0.00050  -0.00260   2.49584
    D3        0.20945  -0.00000  -0.00107  -0.00114  -0.00221   0.20724
    D4        1.35536  -0.00007  -0.00133  -0.00183  -0.00316   1.35220
    D5       -0.64438  -0.00000  -0.00166  -0.00122  -0.00288  -0.64725
    D6       -2.93337  -0.00000  -0.00063  -0.00185  -0.00248  -2.93586
    D7        3.12278   0.00003   0.00148  -0.00012   0.00137   3.12414
    D8       -0.03028   0.00004   0.00221  -0.00006   0.00215  -0.02813
    D9       -0.01755   0.00003   0.00102   0.00062   0.00165  -0.01590
   D10        3.11259   0.00004   0.00176   0.00068   0.00243   3.11502
   D11        0.28617   0.00001   0.00182  -0.00021   0.00161   0.28778
   D12       -2.84064   0.00003   0.00180  -0.00020   0.00160  -2.83904
   D13       -1.64355  -0.00004   0.00113  -0.00018   0.00094  -1.64260
   D14        1.51283  -0.00003   0.00111  -0.00017   0.00094   1.51377
   D15        2.60664   0.00002   0.00160  -0.00019   0.00142   2.60806
   D16       -0.52017   0.00003   0.00158  -0.00018   0.00141  -0.51876
   D17       -0.81742  -0.00000  -0.00082  -0.00051  -0.00133  -0.81875
   D18        1.23359  -0.00003  -0.00114  -0.00075  -0.00188   1.23171
   D19       -2.95805  -0.00002  -0.00105  -0.00052  -0.00157  -2.95963
   D20        2.33984   0.00001  -0.00083  -0.00050  -0.00133   2.33851
   D21       -1.89233  -0.00002  -0.00114  -0.00074  -0.00189  -1.89422
   D22        0.19921  -0.00000  -0.00106  -0.00051  -0.00157   0.19763
   D23        3.12634   0.00000   0.00085  -0.00070   0.00015   3.12649
   D24       -0.01418   0.00001   0.00104  -0.00026   0.00078  -0.01340
   D25       -0.00425  -0.00001   0.00015  -0.00075  -0.00061  -0.00486
   D26        3.13842   0.00000   0.00034  -0.00031   0.00002   3.13844
   D27       -3.12643  -0.00001  -0.00077   0.00023  -0.00053  -3.12696
   D28        0.01652  -0.00000  -0.00045   0.00032  -0.00013   0.01639
   D29        0.00350   0.00000  -0.00002   0.00029   0.00026   0.00377
   D30       -3.13673   0.00001   0.00029   0.00038   0.00067  -3.13607
   D31        0.00246   0.00001  -0.00015   0.00072   0.00057   0.00303
   D32       -3.13946   0.00000  -0.00013   0.00037   0.00024  -3.13922
   D33       -3.14023  -0.00000  -0.00034   0.00027  -0.00007  -3.14030
   D34        0.00103  -0.00001  -0.00032  -0.00008  -0.00040   0.00063
   D35        0.00009  -0.00000   0.00002  -0.00023  -0.00021  -0.00012
   D36       -3.14148  -0.00001  -0.00004  -0.00033  -0.00037   3.14134
   D37       -3.14118   0.00000   0.00001   0.00011   0.00012  -3.14106
   D38        0.00044  -0.00000  -0.00006   0.00002  -0.00004   0.00040
   D39       -0.00082  -0.00000   0.00010  -0.00023  -0.00013  -0.00095
   D40        3.14094  -0.00000  -0.00001  -0.00012  -0.00014   3.14080
   D41        3.14075   0.00000   0.00017  -0.00014   0.00003   3.14078
   D42       -0.00068   0.00000   0.00005  -0.00003   0.00002  -0.00065
   D43       -0.00102   0.00000  -0.00010   0.00019   0.00009  -0.00092
   D44        3.13923  -0.00001  -0.00041   0.00010  -0.00031   3.13892
   D45        3.14041   0.00000   0.00002   0.00008   0.00010   3.14051
   D46       -0.00253  -0.00001  -0.00029  -0.00001  -0.00030  -0.00283
         Item               Value     Threshold  Converged?
 Maximum Force            0.000303     0.000450     YES
 RMS     Force            0.000047     0.000300     YES
 Maximum Displacement     0.009128     0.001800     NO 
 RMS     Displacement     0.002162     0.001200     NO 
 Predicted change in Energy=-6.673097D-07
 GradGradGradGradGradGradGradGradGradGradGradGradGradGradGradGradGradGrad

                          Input orientation:                          
 ---------------------------------------------------------------------
 Center     Atomic      Atomic             Coordinates (Angstroms)
 Number     Number       Type             X           Y           Z
 ---------------------------------------------------------------------
      1          6           0       -0.609818    1.392087    0.571844
      2          6           0       -0.456310    2.187319    1.796198
      3         35           0       -1.341952    3.856672    1.268595
      4          6           0        1.014214    2.527588    2.125249
      5          8           0        1.855624    2.412432    1.276548
      6          6           0       -1.513947    0.379882    0.337011
      7          6           0       -1.489861   -0.239004   -0.946716
      8          6           0       -2.352596   -1.263392   -1.234361
      9          6           0       -3.253031   -1.687096   -0.258029
     10          6           0       -3.302328   -1.096621    1.009552
     11          6           0       -2.447640   -0.074202    1.313341
     12          6           0        1.268927    2.967907    3.529134
     13          1           0        0.082988    1.657609   -0.221691
     14          1           0       -0.989976    1.818610    2.664427
     15          1           0       -0.780736    0.112008   -1.684941
     16          1           0       -2.339227   -1.739220   -2.204216
     17          1           0       -3.934952   -2.496684   -0.485907
     18          1           0       -4.014329   -1.451093    1.740901
     19          1           0       -2.485261    0.385253    2.290686
     20          1           0        0.539474    3.716953    3.839986
     21          1           0        1.148250    2.104034    4.188224
     22          1           0        2.278729    3.358077    3.621495
 ---------------------------------------------------------------------
                    Distance matrix (angstroms):
                    1          2          3          4          5
     1  C    0.000000
     2  C    1.467992   0.000000
     3  Br   2.663768   1.962005   0.000000
     4  C    2.517918   1.544829   2.837576   0.000000
     5  O    2.759731   2.380283   3.508616   1.200635   0.000000
     6  C    1.377372   2.552381   3.603539   3.768558   4.045738
     7  C    2.396030   3.805109   4.658760   4.833363   4.813033
     8  C    3.653932   4.968661   5.788026   6.082262   6.125803
     9  C    4.142056   5.201210   6.059386   6.453910   6.727511
    10  C    3.692541   4.416208   5.333412   5.745624   6.244134
    11  C    2.465240   3.051725   4.083665   4.406011   4.970189
    12  C    3.841674   2.566871   3.566038   1.493202   2.393096
    13  H    1.086361   2.154834   3.014512   2.670612   2.440638
    14  H    2.169181   1.083775   2.495182   2.193203   3.221222
    15  H    2.600172   4.065771   4.802171   4.855350   4.583968
    16  H    4.527963   5.913239   6.661004   6.942296   6.851913
    17  H    5.224739   6.264890   7.082871   7.520352   7.793359
    18  H    4.587054   5.089264   5.961295   6.423696   7.042641
    19  H    2.735949   2.758370   3.795073   4.106494   4.897062
    20  H    4.172125   2.740153   3.189253   2.140162   3.163107
    21  H    4.083610   2.881551   4.218658   2.110267   3.012199
    22  H    4.637801   3.490390   4.346730   2.127784   2.563599
                    6          7          8          9         10
     6  C    0.000000
     7  C    1.425327   0.000000
     8  C    2.423406   1.369825   0.000000
     9  C    2.766023   2.383281   1.394107   0.000000
    10  C    2.414680   2.801344   2.442325   1.399232   0.000000
    11  C    1.425200   2.460154   2.813182   2.391503   1.366792
    12  C    4.963054   6.158606   7.328725   7.513971   6.615516
    13  H    2.120126   2.568396   3.935710   4.724129   4.534545
    14  H    2.785920   4.186170   5.153253   5.094324   4.072365
    15  H    2.167405   1.082148   2.136700   3.374180   3.883233
    16  H    3.410208   2.133864   1.080375   2.150674   3.415963
    17  H    3.848779   3.359752   2.141272   1.082764   2.144013
    18  H    3.402248   3.881415   3.413030   2.151974   1.080494
    19  H    2.181817   3.444023   3.893789   3.373433   2.122464
    20  H    5.255798   6.533018   7.675735   7.770493   6.778001
    21  H    4.989171   6.230334   7.280103   7.315265   6.336859
    22  H    5.834541   6.928912   8.147790   8.432369   7.603603
                   11         12         13         14         15
    11  C    0.000000
    12  C    5.289332   0.000000
    13  H    3.429223   4.146326   0.000000
    14  H    2.744623   2.677918   3.083318   0.000000
    15  H    3.435540   6.288391   2.296955   4.676887   0.000000
    16  H    3.893231   8.249068   4.619088   6.179184   2.474992
    17  H    3.364196   8.547671   5.785482   6.100759   4.265212
    18  H    2.129120   7.116048   5.504889   4.548689   4.963446
    19  H    1.080610   4.722053   3.811408   2.104774   4.334245
    20  H    5.447902   1.090780   4.576734   2.706448   6.727808
    21  H    5.093141   1.093270   4.558665   2.641104   6.494861
    22  H    6.280659   1.086491   4.741619   3.737695   6.932212
                   16         17         18         19         20
    16  H    0.000000
    17  H    2.464280   0.000000
    18  H    4.295687   2.461348   0.000000
    19  H    4.973817   4.256365   2.452036   0.000000
    20  H    8.636500   8.794495   7.200832   4.759157   0.000000
    21  H    8.233856   8.297774   6.729082   4.444914   1.758803
    22  H    9.013704   9.474113   8.140475   5.770991   1.789284
                   21         22
    21  H    0.000000
    22  H    1.780951   0.000000
 Stoichiometry    C10H10BrO(1+)
 Framework group  C1[X(C10H10BrO)]
 Deg. of freedom    60
 Full point group                 C1      NOp   1
 Largest Abelian subgroup         C1      NOp   1
 Largest concise Abelian subgroup C1      NOp   1
                         Standard orientation:                         
 ---------------------------------------------------------------------
 Center     Atomic      Atomic             Coordinates (Angstroms)
 Number     Number       Type             X           Y           Z
 ---------------------------------------------------------------------
      1          6           0        0.199850    0.476536   -0.516731
      2          6           0       -0.973231    0.336515    0.354632
      3         35           0       -1.645974   -1.418894   -0.206991
      4          6           0       -2.081271    1.372230    0.061305
      5          8           0       -2.069677    1.978298   -0.975068
      6          6           0        1.522708    0.296942   -0.177693
      7          6           0        2.494543    0.468399   -1.206137
      8          6           0        3.827373    0.320615   -0.926594
      9          6           0        4.216907   -0.002205    0.372476
     10          6           0        3.285835   -0.180088    1.401706
     11          6           0        1.952180   -0.035056    1.140080
     12          6           0       -3.095231    1.546293    1.143544
     13          1           0       -0.036042    0.753009   -1.540498
     14          1           0       -0.762771    0.258965    1.414944
     15          1           0        2.162280    0.717532   -2.205425
     16          1           0        4.570406    0.451035   -1.699965
     17          1           0        5.270519   -0.119159    0.592936
     18          1           0        3.624877   -0.430630    2.396567
     19          1           0        1.230832   -0.174306    1.932534
     20          1           0       -3.448695    0.579446    1.504198
     21          1           0       -2.616098    2.051791    1.986243
     22          1           0       -3.926799    2.146140    0.784183
 ---------------------------------------------------------------------
 Rotational constants (GHZ):           1.1840979           0.3694996           0.3321917
 Standard basis: def2TZVP (5D, 7F)
 There are   511 symmetry adapted cartesian basis functions of A   symmetry.
 There are   449 symmetry adapted basis functions of A   symmetry.
   449 basis functions,   755 primitive gaussians,   511 cartesian basis functions
    56 alpha electrons       56 beta electrons
       nuclear repulsion energy       925.3573562729 Hartrees.
 NAtoms=   22 NActive=   22 NUniq=   22 SFac= 1.00D+00 NAtFMM=   60 NAOKFM=F Big=F
 Integral buffers will be    131072 words long.
 Raffenetti 2 integral format.
 Two-electron integral symmetry is turned on.
 Nuclear repulsion after empirical dispersion term =      925.3443330188 Hartrees.
 ------------------------------------------------------------------------------
 Polarizable Continuum Model (PCM)
 =================================
 Model                : C-PCM.
 Atomic radii         : UFF (Universal Force Field).
 Polarization charges : Total charges.
 Charge compensation  : None.
 Solution method      : On-the-fly selection.
 Cavity type          : Scaled VdW (van der Waals Surface) (Alpha=1.100).
 Cavity algorithm     : GePol (No added spheres)
                        Default sphere list used, NSphG=   22.
                        Lebedev-Laikov grids with approx.  5.0 points / Ang**2.
                        Smoothing algorithm: York/Karplus (Gamma=1.0000).
                        Polarization charges: spherical gaussians, with
                                              point-specific exponents (IZeta= 3).
                        Self-potential: point-specific (ISelfS= 7).
                        Self-field    : sphere-specific E.n sum rule (ISelfD= 2).
 1st derivatives      : Analytical E(r).r(x)/FMM algorithm (CHGder, D1EAlg=3).
                        Cavity 1st derivative terms included.
 Solvent              : DiChloroEthane, Eps=  10.125000 Eps(inf)=   2.087447
 ------------------------------------------------------------------------------
 One-electron integrals computed using PRISM.
   1 Symmetry operations used in ECPInt.
 ECPInt:  NShTT=   15753 NPrTT=   51378 LenC2=   14561 LenP2D=   35122.
 LDataN:  DoStor=T MaxTD1= 6 Len=  172
 NBasis=   449 RedAO= T EigKep=  8.74D-06  NBF=   449
 NBsUse=   449 1.00D-06 EigRej= -1.00D+00 NBFU=   449
 Initial guess from the checkpoint file:  "d2.chk"
 B after Tr=    -0.000000   -0.000000   -0.000000
         Rot=    1.000000    0.000296   -0.000076    0.000387 Ang=   0.06 deg.
 Requested convergence on RMS density matrix=1.00D-08 within 128 cycles.
 Requested convergence on MAX density matrix=1.00D-06.
 Requested convergence on             energy=1.00D-06.
 No special actions if energy rises.
 Inv3:  Mode=1 IEnd=    10990188.
 Iteration    1 A*A^-1 deviation from unit magnitude is 4.66D-15 for   1909.
 Iteration    1 A*A^-1 deviation from orthogonality  is 3.48D-15 for   1904   1129.
 Iteration    1 A^-1*A deviation from unit magnitude is 4.44D-15 for   1909.
 Iteration    1 A^-1*A deviation from orthogonality  is 2.00D-15 for   1904   1129.
 Error on total polarization charges =  0.01060
 SCF Done:  E(RwB97XD) =  -3036.30957128     A.U. after    9 cycles
            NFock=  9  Conv=0.53D-08     -V/T= 2.0019
   1 Symmetry operations used in ECPInt.
 ECPInt:  NShTT=   15753 NPrTT=   51378 LenC2=   14561 LenP2D=   35122.
 LDataN:  DoStor=T MaxTD1= 7 Len=  274
 D1PCM: C-PCM CHGder 1st derivatives, ID1Alg=3 FixD1E=F DoIter=F DoCFld=F I1PDM=0.
 Calling FoFJK, ICntrl=      2127 FMM=F ISym2X=0 I1Cent= 0 IOpClX= 0 NMat=1 NMatS=1 NMatT=0.
 ***** Axes restored to original set *****
 -------------------------------------------------------------------
 Center     Atomic                   Forces (Hartrees/Bohr)
 Number     Number              X              Y              Z
 -------------------------------------------------------------------
      1        6          -0.000016281   -0.000018618   -0.000008496
      2        6          -0.000015495   -0.000053509   -0.000022189
      3       35           0.000023081    0.000002898    0.000024343
      4        6           0.000038530    0.000039430    0.000002029
      5        8          -0.000035906    0.000008758    0.000012520
      6        6           0.000032105    0.000025579    0.000036102
      7        6          -0.000004412   -0.000041675   -0.000006930
      8        6           0.000010542    0.000012579   -0.000009414
      9        6          -0.000000037    0.000006689    0.000014065
     10        6           0.000002634    0.000004915    0.000006651
     11        6          -0.000004974   -0.000012307   -0.000007080
     12        6           0.000037754   -0.000023886   -0.000028607
     13        1          -0.000030922    0.000004966   -0.000002201
     14        1          -0.000014643    0.000024476   -0.000030137
     15        1          -0.000013237    0.000001459    0.000008671
     16        1          -0.000005592    0.000002600    0.000015714
     17        1           0.000006406    0.000006445    0.000010074
     18        1           0.000006768    0.000005762   -0.000003652
     19        1          -0.000001905   -0.000007166   -0.000006525
     20        1           0.000008841   -0.000001142   -0.000003816
     21        1          -0.000007727    0.000021971    0.000003878
     22        1          -0.000015528   -0.000010226   -0.000004997
 -------------------------------------------------------------------
 Cartesian Forces:  Max     0.000053509 RMS     0.000018720

 GradGradGradGradGradGradGradGradGradGradGradGradGradGradGradGradGradGrad
 Berny optimization.
 Using GEDIIS/GDIIS optimizer.
 FormGI is forming the generalized inverse of G from B-inverse, IUseBI=4.
 Internal  Forces:  Max     0.000050762 RMS     0.000013868
 Search for a local minimum.
 Step number   7 out of a maximum of  114
 All quantities printed in internal units (Hartrees-Bohrs-Radians)
 Mixed Optimization -- En-DIIS/RFO-DIIS
 Swapping is turned off.
 Update second derivatives using D2CorX and points    1    2    3    4    5
                                                      6    7
 DE= -1.11D-06 DEPred=-6.67D-07 R= 1.66D+00
 TightC=F SS=  1.41D+00  RLast= 9.60D-03 DXNew= 4.4058D-01 2.8811D-02
 Trust test= 1.66D+00 RLast= 9.60D-03 DXMaxT set to 2.62D-01
 ITU=  1  1  1 -1  1  1  0
     Eigenvalues ---    0.00241   0.00648   0.01028   0.01677   0.01723
     Eigenvalues ---    0.01935   0.02023   0.02062   0.02070   0.02153
     Eigenvalues ---    0.02181   0.02191   0.02272   0.02287   0.03070
     Eigenvalues ---    0.03089   0.07238   0.07429   0.07644   0.11917
     Eigenvalues ---    0.15699   0.15804   0.15999   0.16000   0.16000
     Eigenvalues ---    0.16000   0.16007   0.16123   0.16324   0.16647
     Eigenvalues ---    0.17246   0.20997   0.21988   0.22010   0.22310
     Eigenvalues ---    0.23584   0.24869   0.25017   0.25297   0.27969
     Eigenvalues ---    0.33180   0.33915   0.34265   0.34799   0.34834
     Eigenvalues ---    0.35046   0.35232   0.35324   0.35427   0.35460
     Eigenvalues ---    0.35783   0.36262   0.38662   0.40074   0.44132
     Eigenvalues ---    0.45070   0.47722   0.48119   0.52023   1.05510
 En-DIIS/RFO-DIIS/Sim-DIIS IScMMF=       -3 using points:     7    6    5    4    3    2
 RFO step:  Lambda=-4.63954949D-07.
 DidBck=F Rises=F RFO-DIIS coefs:    1.52987   -0.36305   -0.06228   -0.02813   -0.08668
                  RFO-DIIS coefs:    0.01027
 Iteration  1 RMS(Cart)=  0.00183203 RMS(Int)=  0.00000316
 Iteration  2 RMS(Cart)=  0.00000170 RMS(Int)=  0.00000298
 Iteration  3 RMS(Cart)=  0.00000000 RMS(Int)=  0.00000298
 Variable       Old X    -DE/DX   Delta X   Delta X   Delta X     New X
                                 (Linear)    (Quad)   (Total)
    R1        2.77410  -0.00001  -0.00007  -0.00001  -0.00007   2.77403
    R2        2.60286  -0.00004  -0.00008  -0.00008  -0.00015   2.60270
    R3        2.05292  -0.00002   0.00006  -0.00012  -0.00006   2.05287
    R4        3.70765  -0.00001  -0.00009  -0.00004  -0.00013   3.70752
    R5        2.91930   0.00002   0.00017  -0.00004   0.00013   2.91943
    R6        2.04804  -0.00002   0.00017  -0.00023  -0.00005   2.04798
    R7        2.26887  -0.00004   0.00053  -0.00042   0.00012   2.26899
    R8        2.82174  -0.00002  -0.00024   0.00007  -0.00017   2.82157
    R9        2.69348   0.00001   0.00035  -0.00022   0.00013   2.69361
   R10        2.69324  -0.00001   0.00026  -0.00021   0.00005   2.69329
   R11        2.58859  -0.00003  -0.00007  -0.00005  -0.00011   2.58848
   R12        2.04496  -0.00001   0.00011  -0.00013  -0.00002   2.04494
   R13        2.63448  -0.00001   0.00018  -0.00016   0.00002   2.63450
   R14        2.04161  -0.00001   0.00015  -0.00016  -0.00001   2.04161
   R15        2.64417  -0.00002   0.00015  -0.00016  -0.00001   2.64415
   R16        2.04613  -0.00001   0.00009  -0.00011  -0.00003   2.04610
   R17        2.58286  -0.00002   0.00001  -0.00008  -0.00007   2.58279
   R18        2.04184  -0.00001   0.00015  -0.00015  -0.00000   2.04183
   R19        2.04206  -0.00001   0.00008  -0.00011  -0.00003   2.04203
   R20        2.06128  -0.00001   0.00017  -0.00014   0.00003   2.06130
   R21        2.06598  -0.00001   0.00021  -0.00019   0.00002   2.06600
   R22        2.05317  -0.00002   0.00014  -0.00019  -0.00005   2.05312
    A1        2.22551   0.00000  -0.00037   0.00026  -0.00011   2.22541
    A2        1.99339   0.00001   0.00030  -0.00019   0.00012   1.99351
    A3        2.06428  -0.00001   0.00006  -0.00007  -0.00001   2.06427
    A4        1.76138   0.00005   0.00078  -0.00001   0.00077   1.76215
    A5        1.97851  -0.00002  -0.00044   0.00019  -0.00026   1.97825
    A6        2.01792  -0.00001   0.00041  -0.00043  -0.00003   2.01788
    A7        1.87502  -0.00003  -0.00026  -0.00001  -0.00027   1.87475
    A8        1.85732  -0.00001  -0.00008  -0.00007  -0.00015   1.85717
    A9        1.95306   0.00002  -0.00031   0.00031  -0.00000   1.95306
   A10        2.08910  -0.00003  -0.00012  -0.00001  -0.00015   2.08895
   A11        2.01262   0.00002   0.00015   0.00004   0.00018   2.01280
   A12        2.18136   0.00000   0.00002  -0.00003  -0.00003   2.18133
   A13        2.05054  -0.00001  -0.00015   0.00005  -0.00010   2.05044
   A14        2.15003   0.00002   0.00016  -0.00001   0.00015   2.15018
   A15        2.08256  -0.00001  -0.00000  -0.00004  -0.00005   2.08252
   A16        2.09809   0.00000  -0.00002   0.00006   0.00004   2.09812
   A17        2.07675  -0.00001  -0.00015   0.00004  -0.00012   2.07664
   A18        2.10835   0.00000   0.00017  -0.00010   0.00008   2.10842
   A19        2.07946  -0.00001   0.00007  -0.00009  -0.00002   2.07944
   A20        2.10607   0.00001   0.00003   0.00002   0.00006   2.10613
   A21        2.09766   0.00000  -0.00011   0.00007  -0.00004   2.09762
   A22        2.12814   0.00001  -0.00009   0.00010   0.00001   2.12815
   A23        2.07903  -0.00000   0.00005  -0.00004   0.00000   2.07903
   A24        2.07602  -0.00000   0.00005  -0.00006  -0.00001   2.07601
   A25        2.08862  -0.00000   0.00016  -0.00011   0.00005   2.08867
   A26        2.09203  -0.00000  -0.00012   0.00007  -0.00005   2.09198
   A27        2.10253   0.00000  -0.00003   0.00004   0.00000   2.10253
   A28        2.08949   0.00000  -0.00011   0.00009  -0.00002   2.08946
   A29        2.10241   0.00000   0.00001   0.00001   0.00002   2.10243
   A30        2.09129  -0.00001   0.00010  -0.00010  -0.00000   2.09129
   A31        1.93516  -0.00000  -0.00020   0.00006  -0.00014   1.93502
   A32        1.89121   0.00002  -0.00006   0.00022   0.00016   1.89137
   A33        1.92235   0.00000   0.00004   0.00001   0.00005   1.92241
   A34        1.87234  -0.00001  -0.00019  -0.00002  -0.00021   1.87214
   A35        1.92913  -0.00000   0.00024  -0.00019   0.00005   1.92918
   A36        1.91251  -0.00000   0.00017  -0.00009   0.00008   1.91259
    D1       -1.78790  -0.00003  -0.00207  -0.00028  -0.00235  -1.79024
    D2        2.49584  -0.00001  -0.00202  -0.00034  -0.00236   2.49348
    D3        0.20724  -0.00002  -0.00150  -0.00056  -0.00206   0.20517
    D4        1.35220  -0.00002  -0.00206   0.00017  -0.00190   1.35030
    D5       -0.64725  -0.00000  -0.00202   0.00011  -0.00191  -0.64916
    D6       -2.93586  -0.00001  -0.00150  -0.00011  -0.00162  -2.93747
    D7        3.12414   0.00002   0.00119   0.00011   0.00129   3.12543
    D8       -0.02813   0.00001   0.00183  -0.00044   0.00139  -0.02674
    D9       -0.01590   0.00001   0.00118  -0.00035   0.00083  -0.01507
   D10        3.11502   0.00001   0.00183  -0.00090   0.00092   3.11594
   D11        0.28778   0.00001   0.00137   0.00015   0.00151   0.28929
   D12       -2.83904   0.00002   0.00137   0.00009   0.00147  -2.83757
   D13       -1.64260  -0.00002   0.00080   0.00007   0.00087  -1.64173
   D14        1.51377  -0.00001   0.00081   0.00002   0.00082   1.51459
   D15        2.60806   0.00001   0.00122  -0.00000   0.00122   2.60928
   D16       -0.51876   0.00001   0.00123  -0.00006   0.00117  -0.51758
   D17       -0.81875  -0.00001  -0.00098  -0.00043  -0.00140  -0.82015
   D18        1.23171  -0.00002  -0.00136  -0.00028  -0.00164   1.23007
   D19       -2.95963  -0.00001  -0.00117  -0.00024  -0.00141  -2.96104
   D20        2.33851  -0.00000  -0.00096  -0.00049  -0.00145   2.33706
   D21       -1.89422  -0.00001  -0.00134  -0.00034  -0.00168  -1.89590
   D22        0.19763  -0.00000  -0.00115  -0.00030  -0.00146   0.19617
   D23        3.12649  -0.00000   0.00036  -0.00027   0.00009   3.12658
   D24       -0.01340  -0.00000   0.00074  -0.00065   0.00009  -0.01331
   D25       -0.00486   0.00000  -0.00026   0.00026   0.00000  -0.00486
   D26        3.13844  -0.00000   0.00012  -0.00012  -0.00000   3.13844
   D27       -3.12696  -0.00000  -0.00053   0.00031  -0.00022  -3.12718
   D28        0.01639   0.00000  -0.00022   0.00025   0.00003   0.01642
   D29        0.00377  -0.00000   0.00012  -0.00025  -0.00013   0.00364
   D30       -3.13607  -0.00000   0.00044  -0.00031   0.00013  -3.13594
   D31        0.00303  -0.00000   0.00024  -0.00016   0.00008   0.00311
   D32       -3.13922  -0.00000   0.00008  -0.00007   0.00000  -3.13922
   D33       -3.14030   0.00000  -0.00014   0.00023   0.00009  -3.14021
   D34        0.00063   0.00000  -0.00031   0.00032   0.00001   0.00064
   D35       -0.00012   0.00000  -0.00010   0.00005  -0.00005  -0.00017
   D36        3.14134   0.00000  -0.00020   0.00013  -0.00007   3.14126
   D37       -3.14106  -0.00000   0.00007  -0.00004   0.00003  -3.14103
   D38        0.00040   0.00000  -0.00004   0.00004   0.00001   0.00041
   D39       -0.00095  -0.00000  -0.00004  -0.00004  -0.00007  -0.00103
   D40        3.14080  -0.00000  -0.00008  -0.00002  -0.00009   3.14071
   D41        3.14078  -0.00000   0.00007  -0.00012  -0.00005   3.14073
   D42       -0.00065  -0.00000   0.00003  -0.00010  -0.00007  -0.00072
   D43       -0.00092   0.00000   0.00002   0.00014   0.00016  -0.00076
   D44        3.13892  -0.00000  -0.00029   0.00020  -0.00009   3.13883
   D45        3.14051   0.00000   0.00006   0.00012   0.00018   3.14069
   D46       -0.00283   0.00000  -0.00025   0.00018  -0.00007  -0.00291
         Item               Value     Threshold  Converged?
 Maximum Force            0.000051     0.000450     YES
 RMS     Force            0.000014     0.000300     YES
 Maximum Displacement     0.008251     0.001800     NO 
 RMS     Displacement     0.001832     0.001200     NO 
 Predicted change in Energy=-2.267194D-07
 GradGradGradGradGradGradGradGradGradGradGradGradGradGradGradGradGradGrad

                          Input orientation:                          
 ---------------------------------------------------------------------
 Center     Atomic      Atomic             Coordinates (Angstroms)
 Number     Number       Type             X           Y           Z
 ---------------------------------------------------------------------
      1          6           0       -0.611028    1.393747    0.571052
      2          6           0       -0.457313    2.188853    1.795416
      3         35           0       -1.340849    3.859539    1.268766
      4          6           0        1.013569    2.527566    2.124794
      5          8           0        1.854722    2.412891    1.275685
      6          6           0       -1.514315    0.380741    0.336907
      7          6           0       -1.489591   -0.238974   -0.946487
      8          6           0       -2.351489   -1.264124   -1.233646
      9          6           0       -3.251849   -1.687806   -0.257220
     10          6           0       -3.301809   -1.096556    1.009966
     11          6           0       -2.447864   -0.073449    1.313362
     12          6           0        1.268996    2.965803    3.529103
     13          1           0        0.081061    1.659758   -0.222902
     14          1           0       -0.991476    1.820499    2.663455
     15          1           0       -0.780575    0.112163   -1.684743
     16          1           0       -2.337647   -1.740572   -2.203186
     17          1           0       -3.933187   -2.497974   -0.484718
     18          1           0       -4.013802   -1.451016    1.741326
     19          1           0       -2.486098    0.386626    2.290376
     20          1           0        0.541021    3.716072    3.840524
     21          1           0        1.146178    2.101622    4.187412
     22          1           0        2.279585    3.353711    3.622087
 ---------------------------------------------------------------------
                    Distance matrix (angstroms):
                    1          2          3          4          5
     1  C    0.000000
     2  C    1.467954   0.000000
     3  Br   2.664502   1.961934   0.000000
     4  C    2.517732   1.544897   2.837291   0.000000
     5  O    2.759544   2.380298   3.507779   1.200698   0.000000
     6  C    1.377292   2.552209   3.605619   3.767704   4.044916
     7  C    2.395951   3.804994   4.661254   4.832424   4.811951
     8  C    3.653823   4.968518   5.790974   6.081090   6.124491
     9  C    4.141973   5.201080   6.062474   6.452685   6.726260
    10  C    3.692500   4.416107   5.336217   5.744527   6.243127
    11  C    2.465290   3.051669   4.086057   4.405135   4.969462
    12  C    3.841343   2.566995   3.566396   1.493111   2.393048
    13  H    1.086330   2.154854   3.014289   2.671018   2.441075
    14  H    2.169103   1.083747   2.494976   2.193240   3.221440
    15  H    2.599964   4.065544   4.804160   4.854451   4.582824
    16  H    4.527866   5.913109   6.664031   6.941114   6.850530
    17  H    5.224643   6.264748   7.086106   7.519043   7.792016
    18  H    4.587057   5.089223   5.964057   6.422665   7.041745
    19  H    2.736103   2.758438   3.796894   4.105936   4.896740
    20  H    4.172512   2.740718   3.189978   2.139995   3.162672
    21  H    4.082514   2.881048   4.218302   2.110310   3.012819
    22  H    4.637447   3.490592   4.347589   2.127722   2.563446
                    6          7          8          9         10
     6  C    0.000000
     7  C    1.425398   0.000000
     8  C    2.423444   1.369766   0.000000
     9  C    2.766026   2.383224   1.394117   0.000000
    10  C    2.414653   2.801302   2.442332   1.399226   0.000000
    11  C    1.425225   2.460204   2.813227   2.391499   1.366755
    12  C    4.961802   6.157216   7.326935   7.512014   6.613703
    13  H    2.120022   2.568211   3.935479   4.723945   4.534429
    14  H    2.785514   4.185837   5.152857   5.093901   4.071961
    15  H    2.167389   1.082138   2.136685   3.374152   3.883179
    16  H    3.410267   2.133843   1.080371   2.150659   3.415950
    17  H    3.848768   3.359684   2.141273   1.082751   2.143990
    18  H    3.402229   3.881369   3.413016   2.151936   1.080492
    19  H    2.181843   3.444080   3.893819   3.373409   2.122418
    20  H    5.255870   6.533089   7.675687   7.770409   6.777963
    21  H    4.986586   6.227567   7.276661   7.311440   6.333174
    22  H    5.833064   6.927189   8.145514   8.429868   7.601316
                   11         12         13         14         15
    11  C    0.000000
    12  C    5.287874   0.000000
    13  H    3.429224   4.146624   0.000000
    14  H    2.744240   2.677836   3.083380   0.000000
    15  H    3.435540   6.287145   2.296616   4.676507   0.000000
    16  H    3.893271   8.247241   4.618866   6.178802   2.475053
    17  H    3.364164   8.545545   5.785281   6.100317   4.265189
    18  H    2.129086   7.114239   5.504817   4.548361   4.963389
    19  H    1.080595   4.720946   3.811527   2.104537   4.334248
    20  H    5.447976   1.090795   4.577272   2.706887   6.727804
    21  H    5.090013   1.093281   4.558573   2.640273   6.492498
    22  H    6.278886   1.086466   4.742038   3.737587   6.930704
                   16         17         18         19         20
    16  H    0.000000
    17  H    2.464252   0.000000
    18  H    4.295639   2.461279   0.000000
    19  H    4.973842   4.256305   2.451991   0.000000
    20  H    8.636442   8.794352   7.200822   4.759372   0.000000
    21  H    8.230385   8.293674   6.725323   4.442228   1.758691
    22  H    9.011347   9.471357   8.138144   5.769644   1.789309
                   21         22
    21  H    0.000000
    22  H    1.780992   0.000000
 Stoichiometry    C10H10BrO(1+)
 Framework group  C1[X(C10H10BrO)]
 Deg. of freedom    60
 Full point group                 C1      NOp   1
 Largest Abelian subgroup         C1      NOp   1
 Largest concise Abelian subgroup C1      NOp   1
                         Standard orientation:                         
 ---------------------------------------------------------------------
 Center     Atomic      Atomic             Coordinates (Angstroms)
 Number     Number       Type             X           Y           Z
 ---------------------------------------------------------------------
      1          6           0        0.200492    0.474194   -0.517610
      2          6           0       -0.972500    0.335964    0.354096
      3         35           0       -1.648833   -1.418523   -0.205848
      4          6           0       -2.079067    1.373281    0.060513
      5          8           0       -2.067418    1.977778   -0.976851
      6          6           0        1.523265    0.295395   -0.178147
      7          6           0        2.495202    0.466309   -1.206683
      8          6           0        3.828004    0.319196   -0.926939
      9          6           0        4.217522   -0.002516    0.372423
     10          6           0        3.286422   -0.179879    1.401709
     11          6           0        1.952773   -0.035368    1.139952
     12          6           0       -3.091582    1.550848    1.143408
     13          1           0       -0.035318    0.748878   -1.541844
     14          1           0       -0.761832    0.258697    1.414358
     15          1           0        2.162850    0.714493   -2.206167
     16          1           0        4.571091    0.449203   -1.700322
     17          1           0        5.271133   -0.119017    0.593061
     18          1           0        3.625499   -0.429643    2.396750
     19          1           0        1.231444   -0.174313    1.932458
     20          1           0       -3.447441    0.585138    1.504798
     21          1           0       -2.610395    2.055225    1.985623
     22          1           0       -3.921719    2.152868    0.784446
 ---------------------------------------------------------------------
 Rotational constants (GHZ):           1.1838405           0.3693807           0.3320973
 Standard basis: def2TZVP (5D, 7F)
 There are   511 symmetry adapted cartesian basis functions of A   symmetry.
 There are   449 symmetry adapted basis functions of A   symmetry.
   449 basis functions,   755 primitive gaussians,   511 cartesian basis functions
    56 alpha electrons       56 beta electrons
       nuclear repulsion energy       925.2969834330 Hartrees.
 NAtoms=   22 NActive=   22 NUniq=   22 SFac= 1.00D+00 NAtFMM=   60 NAOKFM=F Big=F
 Integral buffers will be    131072 words long.
 Raffenetti 2 integral format.
 Two-electron integral symmetry is turned on.
 Nuclear repulsion after empirical dispersion term =      925.2839609284 Hartrees.
 ------------------------------------------------------------------------------
 Polarizable Continuum Model (PCM)
 =================================
 Model                : C-PCM.
 Atomic radii         : UFF (Universal Force Field).
 Polarization charges : Total charges.
 Charge compensation  : None.
 Solution method      : On-the-fly selection.
 Cavity type          : Scaled VdW (van der Waals Surface) (Alpha=1.100).
 Cavity algorithm     : GePol (No added spheres)
                        Default sphere list used, NSphG=   22.
                        Lebedev-Laikov grids with approx.  5.0 points / Ang**2.
                        Smoothing algorithm: York/Karplus (Gamma=1.0000).
                        Polarization charges: spherical gaussians, with
                                              point-specific exponents (IZeta= 3).
                        Self-potential: point-specific (ISelfS= 7).
                        Self-field    : sphere-specific E.n sum rule (ISelfD= 2).
 1st derivatives      : Analytical E(r).r(x)/FMM algorithm (CHGder, D1EAlg=3).
                        Cavity 1st derivative terms included.
 Solvent              : DiChloroEthane, Eps=  10.125000 Eps(inf)=   2.087447
 ------------------------------------------------------------------------------
 One-electron integrals computed using PRISM.
   1 Symmetry operations used in ECPInt.
 ECPInt:  NShTT=   15753 NPrTT=   51378 LenC2=   14561 LenP2D=   35122.
 LDataN:  DoStor=T MaxTD1= 6 Len=  172
 NBasis=   449 RedAO= T EigKep=  8.74D-06  NBF=   449
 NBsUse=   449 1.00D-06 EigRej= -1.00D+00 NBFU=   449
 Initial guess from the checkpoint file:  "d2.chk"
 B after Tr=    -0.000000    0.000000    0.000000
         Rot=    1.000000    0.000451   -0.000065    0.000327 Ang=   0.06 deg.
 Requested convergence on RMS density matrix=1.00D-08 within 128 cycles.
 Requested convergence on MAX density matrix=1.00D-06.
 Requested convergence on             energy=1.00D-06.
 No special actions if energy rises.
 Inv3:  Mode=1 IEnd=    11013168.
 Iteration    1 A*A^-1 deviation from unit magnitude is 5.55D-15 for   1914.
 Iteration    1 A*A^-1 deviation from orthogonality  is 1.97D-15 for   1906   1131.
 Iteration    1 A^-1*A deviation from unit magnitude is 5.33D-15 for   1914.
 Iteration    1 A^-1*A deviation from orthogonality  is 1.21D-15 for   1149    111.
 Error on total polarization charges =  0.01060
 SCF Done:  E(RwB97XD) =  -3036.30957160     A.U. after    9 cycles
            NFock=  9  Conv=0.45D-08     -V/T= 2.0019
   1 Symmetry operations used in ECPInt.
 ECPInt:  NShTT=   15753 NPrTT=   51378 LenC2=   14561 LenP2D=   35122.
 LDataN:  DoStor=T MaxTD1= 7 Len=  274
 D1PCM: C-PCM CHGder 1st derivatives, ID1Alg=3 FixD1E=F DoIter=F DoCFld=F I1PDM=0.
 Calling FoFJK, ICntrl=      2127 FMM=F ISym2X=0 I1Cent= 0 IOpClX= 0 NMat=1 NMatS=1 NMatT=0.
 ***** Axes restored to original set *****
 -------------------------------------------------------------------
 Center     Atomic                   Forces (Hartrees/Bohr)
 Number     Number              X              Y              Z
 -------------------------------------------------------------------
      1        6          -0.000010066   -0.000026858    0.000020651
      2        6           0.000013240    0.000005313    0.000017761
      3       35          -0.000001794   -0.000000334    0.000002986
      4        6           0.000115725   -0.000015839   -0.000123994
      5        8          -0.000091098    0.000022178    0.000084493
      6        6          -0.000000493    0.000002595   -0.000014623
      7        6           0.000003507    0.000012038    0.000019376
      8        6          -0.000013065   -0.000018760   -0.000015408
      9        6           0.000010200    0.000012233    0.000010172
     10        6          -0.000018312   -0.000017953    0.000015117
     11        6           0.000015675    0.000009752   -0.000012532
     12        6          -0.000004275   -0.000022526    0.000019952
     13        1          -0.000009865    0.000001767   -0.000004416
     14        1          -0.000016365    0.000005730   -0.000022561
     15        1          -0.000011639   -0.000002650   -0.000001456
     16        1          -0.000001002    0.000002431    0.000013061
     17        1          -0.000000276    0.000000324    0.000007073
     18        1           0.000007456    0.000005448   -0.000000388
     19        1          -0.000000228   -0.000004035    0.000002301
     20        1           0.000015828    0.000006951   -0.000006024
     21        1           0.000002847    0.000022266   -0.000004023
     22        1          -0.000005999   -0.000000072   -0.000007519
 -------------------------------------------------------------------
 Cartesian Forces:  Max     0.000123994 RMS     0.000028408

 GradGradGradGradGradGradGradGradGradGradGradGradGradGradGradGradGradGrad
 Berny optimization.
 Using GEDIIS/GDIIS optimizer.
 FormGI is forming the generalized inverse of G from B-inverse, IUseBI=4.
 Internal  Forces:  Max     0.000129346 RMS     0.000014439
 Search for a local minimum.
 Step number   8 out of a maximum of  114
 All quantities printed in internal units (Hartrees-Bohrs-Radians)
 Mixed Optimization -- En-DIIS/RFO-DIIS
 Swapping is turned off.
 Update second derivatives using D2CorX and points    1    2    3    4    5
                                                      6    7    8
 DE= -3.28D-07 DEPred=-2.27D-07 R= 1.45D+00
 Trust test= 1.45D+00 RLast= 7.36D-03 DXMaxT set to 2.62D-01
 ITU=  0  1  1  1 -1  1  1  0
     Eigenvalues ---    0.00247   0.00493   0.01040   0.01694   0.01766
     Eigenvalues ---    0.01942   0.02022   0.02063   0.02091   0.02179
     Eigenvalues ---    0.02185   0.02232   0.02285   0.02290   0.03066
     Eigenvalues ---    0.03157   0.07185   0.07481   0.07653   0.12114
     Eigenvalues ---    0.15677   0.15871   0.15998   0.16000   0.16000
     Eigenvalues ---    0.16001   0.16003   0.16171   0.16257   0.16632
     Eigenvalues ---    0.17412   0.20966   0.21996   0.22012   0.22256
     Eigenvalues ---    0.23580   0.24943   0.25113   0.25477   0.28055
     Eigenvalues ---    0.33437   0.33888   0.34256   0.34782   0.34838
     Eigenvalues ---    0.35013   0.35236   0.35339   0.35427   0.35465
     Eigenvalues ---    0.35635   0.36029   0.38580   0.40074   0.44072
     Eigenvalues ---    0.45019   0.47720   0.47926   0.52469   1.04298
 En-DIIS/RFO-DIIS/Sim-DIIS IScMMF=       -3 using points:     8    7    6    5    4    3    2
 RFO step:  Lambda=-9.04024383D-08.
 DidBck=F Rises=F RFO-DIIS coefs:    1.25328   -0.06524   -0.27327    0.04555    0.01218
                  RFO-DIIS coefs:    0.03048   -0.00298
 Iteration  1 RMS(Cart)=  0.00067266 RMS(Int)=  0.00000132
 Iteration  2 RMS(Cart)=  0.00000032 RMS(Int)=  0.00000129
 Variable       Old X    -DE/DX   Delta X   Delta X   Delta X     New X
                                 (Linear)    (Quad)   (Total)
    R1        2.77403   0.00000  -0.00007   0.00007   0.00000   2.77403
    R2        2.60270  -0.00001  -0.00012   0.00006  -0.00006   2.60264
    R3        2.05287  -0.00000  -0.00008   0.00006  -0.00002   2.05285
    R4        3.70752  -0.00000  -0.00024   0.00018  -0.00006   3.70746
    R5        2.91943   0.00002  -0.00003   0.00010   0.00008   2.91951
    R6        2.04798  -0.00001  -0.00012   0.00008  -0.00003   2.04795
    R7        2.26899  -0.00013  -0.00004  -0.00005  -0.00010   2.26889
    R8        2.82157   0.00002  -0.00011   0.00013   0.00002   2.82159
    R9        2.69361  -0.00001  -0.00002   0.00002   0.00000   2.69361
   R10        2.69329  -0.00001  -0.00006   0.00005  -0.00001   2.69327
   R11        2.58848   0.00001  -0.00010   0.00009  -0.00002   2.58847
   R12        2.04494  -0.00000  -0.00007   0.00005  -0.00002   2.04493
   R13        2.63450  -0.00000  -0.00008   0.00008  -0.00000   2.63450
   R14        2.04161  -0.00001  -0.00006   0.00003  -0.00003   2.04158
   R15        2.64415  -0.00001  -0.00008   0.00007  -0.00002   2.64414
   R16        2.04610  -0.00000  -0.00006   0.00005  -0.00001   2.04609
   R17        2.58279   0.00000  -0.00010   0.00009  -0.00001   2.58278
   R18        2.04183  -0.00001  -0.00005   0.00003  -0.00003   2.04181
   R19        2.04203  -0.00000  -0.00007   0.00006  -0.00001   2.04202
   R20        2.06130  -0.00001  -0.00004   0.00003  -0.00001   2.06130
   R21        2.06600  -0.00002  -0.00004   0.00000  -0.00004   2.06596
   R22        2.05312  -0.00001  -0.00008   0.00004  -0.00003   2.05309
    A1        2.22541   0.00002  -0.00001   0.00006   0.00006   2.22546
    A2        1.99351  -0.00001  -0.00003   0.00003   0.00000   1.99351
    A3        2.06427  -0.00001   0.00004  -0.00010  -0.00006   2.06421
    A4        1.76215   0.00001   0.00040  -0.00019   0.00021   1.76237
    A5        1.97825  -0.00000  -0.00013   0.00005  -0.00007   1.97818
    A6        2.01788  -0.00002  -0.00013   0.00000  -0.00013   2.01775
    A7        1.87475   0.00000  -0.00010   0.00010  -0.00000   1.87475
    A8        1.85717  -0.00001  -0.00001  -0.00011  -0.00012   1.85704
    A9        1.95306   0.00002   0.00001   0.00011   0.00012   1.95319
   A10        2.08895   0.00001  -0.00007   0.00006  -0.00000   2.08895
   A11        2.01280  -0.00001   0.00009  -0.00010  -0.00000   2.01280
   A12        2.18133   0.00000  -0.00005   0.00004   0.00001   2.18134
   A13        2.05044   0.00000  -0.00002   0.00000  -0.00001   2.05043
   A14        2.15018  -0.00000   0.00006  -0.00004   0.00002   2.15020
   A15        2.08252   0.00000  -0.00004   0.00003  -0.00001   2.08251
   A16        2.09812   0.00000   0.00004  -0.00002   0.00002   2.09814
   A17        2.07664   0.00000  -0.00005   0.00005  -0.00000   2.07663
   A18        2.10842  -0.00001   0.00001  -0.00003  -0.00001   2.10841
   A19        2.07944  -0.00001  -0.00003  -0.00000  -0.00003   2.07941
   A20        2.10613   0.00000   0.00005  -0.00004   0.00001   2.10614
   A21        2.09762   0.00001  -0.00001   0.00004   0.00002   2.09764
   A22        2.12815   0.00001   0.00002   0.00002   0.00004   2.12818
   A23        2.07903  -0.00000  -0.00001  -0.00001  -0.00002   2.07902
   A24        2.07601  -0.00000  -0.00001  -0.00001  -0.00002   2.07599
   A25        2.08867  -0.00001   0.00001  -0.00003  -0.00003   2.08865
   A26        2.09198   0.00001  -0.00002   0.00004   0.00002   2.09200
   A27        2.10253   0.00000   0.00001  -0.00000   0.00001   2.10254
   A28        2.08946   0.00001   0.00001   0.00001   0.00002   2.08948
   A29        2.10243   0.00000  -0.00001   0.00003   0.00002   2.10245
   A30        2.09129  -0.00001  -0.00000  -0.00003  -0.00003   2.09125
   A31        1.93502   0.00000  -0.00010   0.00006  -0.00003   1.93499
   A32        1.89137   0.00002   0.00009   0.00009   0.00017   1.89154
   A33        1.92241  -0.00001   0.00004  -0.00008  -0.00004   1.92237
   A34        1.87214  -0.00001  -0.00006   0.00003  -0.00004   1.87210
   A35        1.92918  -0.00001   0.00001  -0.00009  -0.00008   1.92910
   A36        1.91259  -0.00000   0.00002   0.00000   0.00003   1.91262
    D1       -1.79024   0.00000  -0.00086   0.00018  -0.00067  -1.79092
    D2        2.49348  -0.00000  -0.00092   0.00016  -0.00076   2.49272
    D3        0.20517  -0.00001  -0.00068  -0.00006  -0.00074   0.20443
    D4        1.35030  -0.00000  -0.00088   0.00010  -0.00078   1.34952
    D5       -0.64916  -0.00000  -0.00094   0.00008  -0.00086  -0.65003
    D6       -2.93747  -0.00001  -0.00070  -0.00014  -0.00085  -2.93832
    D7        3.12543  -0.00000   0.00031  -0.00022   0.00009   3.12553
    D8       -0.02674  -0.00001   0.00040  -0.00041  -0.00002  -0.02676
    D9       -0.01507  -0.00000   0.00033  -0.00013   0.00020  -0.01487
   D10        3.11594  -0.00000   0.00042  -0.00033   0.00009   3.11603
   D11        0.28929   0.00000   0.00034  -0.00009   0.00025   0.28953
   D12       -2.83757   0.00000   0.00030  -0.00013   0.00017  -2.83740
   D13       -1.64173  -0.00000  -0.00003   0.00005   0.00003  -1.64171
   D14        1.51459  -0.00000  -0.00006   0.00001  -0.00005   1.51454
   D15        2.60928  -0.00000   0.00004   0.00007   0.00011   2.60939
   D16       -0.51758  -0.00000   0.00001   0.00003   0.00004  -0.51755
   D17       -0.82015  -0.00001  -0.00055  -0.00036  -0.00092  -0.82107
   D18        1.23007  -0.00000  -0.00064  -0.00024  -0.00088   1.22919
   D19       -2.96104   0.00000  -0.00053  -0.00023  -0.00077  -2.96180
   D20        2.33706  -0.00001  -0.00059  -0.00040  -0.00099   2.33607
   D21       -1.89590  -0.00001  -0.00068  -0.00028  -0.00096  -1.89686
   D22        0.19617  -0.00000  -0.00057  -0.00027  -0.00084   0.19533
   D23        3.12658  -0.00000  -0.00002  -0.00019  -0.00021   3.12637
   D24       -0.01331  -0.00000   0.00005  -0.00024  -0.00019  -0.01350
   D25       -0.00486  -0.00000  -0.00010  -0.00000  -0.00010  -0.00496
   D26        3.13844  -0.00000  -0.00003  -0.00005  -0.00009   3.13835
   D27       -3.12718   0.00000  -0.00008   0.00026   0.00018  -3.12700
   D28        0.01642   0.00000  -0.00000   0.00011   0.00011   0.01653
   D29        0.00364   0.00000   0.00001   0.00006   0.00007   0.00371
   D30       -3.13594  -0.00000   0.00009  -0.00009  -0.00000  -3.13594
   D31        0.00311   0.00000   0.00012  -0.00006   0.00006   0.00318
   D32       -3.13922   0.00000   0.00005   0.00004   0.00009  -3.13913
   D33       -3.14021   0.00000   0.00005  -0.00001   0.00004  -3.14016
   D34        0.00064   0.00000  -0.00002   0.00009   0.00007   0.00071
   D35       -0.00017   0.00000  -0.00005   0.00006   0.00002  -0.00016
   D36        3.14126   0.00000  -0.00007   0.00007  -0.00000   3.14126
   D37       -3.14103  -0.00000   0.00003  -0.00003  -0.00001  -3.14103
   D38        0.00041  -0.00000   0.00001  -0.00003  -0.00002   0.00038
   D39       -0.00103  -0.00000  -0.00005  -0.00001  -0.00005  -0.00108
   D40        3.14071  -0.00000  -0.00004  -0.00000  -0.00004   3.14067
   D41        3.14073  -0.00000  -0.00003  -0.00001  -0.00004   3.14069
   D42       -0.00072  -0.00000  -0.00002  -0.00001  -0.00003  -0.00075
   D43       -0.00076  -0.00000   0.00007  -0.00006   0.00001  -0.00075
   D44        3.13883   0.00000  -0.00001   0.00009   0.00008   3.13891
   D45        3.14069  -0.00000   0.00006  -0.00006   0.00000   3.14069
   D46       -0.00291   0.00000  -0.00002   0.00009   0.00007  -0.00284
         Item               Value     Threshold  Converged?
 Maximum Force            0.000129     0.000450     YES
 RMS     Force            0.000014     0.000300     YES
 Maximum Displacement     0.003215     0.001800     NO 
 RMS     Displacement     0.000673     0.001200     YES
 Predicted change in Energy=-4.485513D-08
 GradGradGradGradGradGradGradGradGradGradGradGradGradGradGradGradGradGrad

                          Input orientation:                          
 ---------------------------------------------------------------------
 Center     Atomic      Atomic             Coordinates (Angstroms)
 Number     Number       Type             X           Y           Z
 ---------------------------------------------------------------------
      1          6           0       -0.611369    1.394155    0.570854
      2          6           0       -0.457552    2.189309    1.795176
      3         35           0       -1.340207    3.860448    1.268601
      4          6           0        1.013489    2.527296    2.124777
      5          8           0        1.854649    2.412338    1.275785
      6          6           0       -1.514496    0.381024    0.336825
      7          6           0       -1.489758   -0.238733   -0.946550
      8          6           0       -2.351330   -1.264189   -1.233554
      9          6           0       -3.251433   -1.688081   -0.256985
     10          6           0       -3.301489   -1.096758    1.010154
     11          6           0       -2.447824   -0.073376    1.313385
     12          6           0        1.268945    2.965329    3.529157
     13          1           0        0.080462    1.660317   -0.223259
     14          1           0       -0.992122    1.821191    2.663042
     15          1           0       -0.780972    0.112611   -1.684917
     16          1           0       -2.337415   -1.740711   -2.203039
     17          1           0       -3.932523   -2.498489   -0.484346
     18          1           0       -4.013302   -1.451371    1.741593
     19          1           0       -2.486090    0.386702    2.290390
     20          1           0        0.541842    3.716603    3.840177
     21          1           0        1.144778    2.101493    4.187631
     22          1           0        2.279958    3.352010    3.622431
 ---------------------------------------------------------------------
                    Distance matrix (angstroms):
                    1          2          3          4          5
     1  C    0.000000
     2  C    1.467955   0.000000
     3  Br   2.664705   1.961904   0.000000
     4  C    2.517707   1.544939   2.837291   0.000000
     5  O    2.759505   2.380290   3.507731   1.200647   0.000000
     6  C    1.377259   2.552217   3.606240   3.767488   4.044628
     7  C    2.395914   3.804983   4.661817   4.832206   4.811652
     8  C    3.653785   4.968526   5.791809   6.080769   6.124041
     9  C    4.141912   5.201086   6.063528   6.452268   6.725689
    10  C    3.692475   4.416160   5.337350   5.744144   6.242601
    11  C    2.465272   3.051728   4.087027   4.404831   4.969050
    12  C    3.841317   2.567039   3.566374   1.493122   2.393018
    13  H    1.086319   2.154849   3.014054   2.671229   2.441394
    14  H    2.169005   1.083729   2.494835   2.193351   3.221496
    15  H    2.599928   4.065504   4.804404   4.854335   4.582684
    16  H    4.527814   5.913092   6.664809   6.940780   6.850067
    17  H    5.224575   6.264750   7.087242   7.518582   7.791382
    18  H    4.587025   5.089281   5.965281   6.422247   7.041170
    19  H    2.736118   2.758550   3.797896   4.105682   4.896390
    20  H    4.172785   2.741066   3.189954   2.139977   3.162385
    21  H    4.082335   2.880801   4.217797   2.110429   3.013203
    22  H    4.637358   3.490658   4.347945   2.127690   2.563323
                    6          7          8          9         10
     6  C    0.000000
     7  C    1.425399   0.000000
     8  C    2.423450   1.369758   0.000000
     9  C    2.766001   2.383193   1.394115   0.000000
    10  C    2.414654   2.801297   2.442347   1.399218   0.000000
    11  C    1.425219   2.460191   2.813227   2.391469   1.366749
    12  C    4.961567   6.156980   7.326569   7.511519   6.613228
    13  H    2.119947   2.568099   3.935358   4.723816   4.534354
    14  H    2.785362   4.185700   5.152715   5.093726   4.071810
    15  H    2.167382   1.082130   2.136663   3.374115   3.883166
    16  H    3.410259   2.133829   1.080355   2.150656   3.415951
    17  H    3.848737   3.359647   2.141256   1.082745   2.143965
    18  H    3.402217   3.881350   3.413017   2.151927   1.080478
    19  H    2.181844   3.444071   3.893813   3.373366   2.122388
    20  H    5.256243   6.533363   7.676033   7.770862   6.778544
    21  H    4.986026   6.227138   7.275977   7.310415   6.332019
    22  H    5.832653   6.926744   8.144858   8.429038   7.600531
                   11         12         13         14         15
    11  C    0.000000
    12  C    5.287508   0.000000
    13  H    3.429169   4.146826   0.000000
    14  H    2.744089   2.677989   3.083351   0.000000
    15  H    3.435520   6.287028   2.296499   4.676385   0.000000
    16  H    3.893255   8.246860   4.618728   6.178649   2.475028
    17  H    3.364126   8.544985   5.785143   6.100135   4.265147
    18  H    2.129074   7.113702   5.504739   4.548215   4.963362
    19  H    1.080590   4.720608   3.811524   2.104417   4.334237
    20  H    5.448552   1.090791   4.577411   2.707633   6.727946
    21  H    5.089021   1.093260   4.558877   2.639940   6.492379
    22  H    6.278286   1.086449   4.742250   3.737692   6.930436
                   16         17         18         19         20
    16  H    0.000000
    17  H    2.464244   0.000000
    18  H    4.295630   2.461257   0.000000
    19  H    4.973820   4.256249   2.451952   0.000000
    20  H    8.636715   8.794817   7.201482   4.760090   0.000000
    21  H    8.229755   8.292539   6.723968   4.441085   1.758646
    22  H    9.010662   9.470421   8.137269   5.769107   1.789242
                   21         22
    21  H    0.000000
    22  H    1.780976   0.000000
 Stoichiometry    C10H10BrO(1+)
 Framework group  C1[X(C10H10BrO)]
 Deg. of freedom    60
 Full point group                 C1      NOp   1
 Largest Abelian subgroup         C1      NOp   1
 Largest concise Abelian subgroup C1      NOp   1
                         Standard orientation:                         
 ---------------------------------------------------------------------
 Center     Atomic      Atomic             Coordinates (Angstroms)
 Number     Number       Type             X           Y           Z
 ---------------------------------------------------------------------
      1          6           0        0.200717    0.473242   -0.517968
      2          6           0       -0.972307    0.335885    0.353835
      3         35           0       -1.649759   -1.418453   -0.205113
      4          6           0       -2.078330    1.373737    0.059876
      5          8           0       -2.066485    1.977651   -0.977765
      6          6           0        1.523461    0.294710   -0.178384
      7          6           0        2.495373    0.464752   -1.207090
      8          6           0        3.828193    0.318104   -0.927230
      9          6           0        4.217735   -0.002358    0.372431
     10          6           0        3.286685   -0.178943    1.401885
     11          6           0        1.953025   -0.034829    1.139997
     12          6           0       -3.090624    1.552411    1.142811
     13          1           0       -0.035051    0.746887   -1.542478
     14          1           0       -0.761500    0.258879    1.414070
     15          1           0        2.162984    0.711928   -2.206803
     16          1           0        4.571249    0.447535   -1.700718
     17          1           0        5.271357   -0.118499    0.593177
     18          1           0        3.625794   -0.427779    2.397132
     19          1           0        1.231745   -0.173107    1.932656
     20          1           0       -3.447663    0.587079    1.504035
     21          1           0       -2.608984    2.056083    1.985161
     22          1           0       -3.920050    2.155387    0.783862
 ---------------------------------------------------------------------
 Rotational constants (GHZ):           1.1837626           0.3693366           0.3320643
 Standard basis: def2TZVP (5D, 7F)
 There are   511 symmetry adapted cartesian basis functions of A   symmetry.
 There are   449 symmetry adapted basis functions of A   symmetry.
   449 basis functions,   755 primitive gaussians,   511 cartesian basis functions
    56 alpha electrons       56 beta electrons
       nuclear repulsion energy       925.2763970285 Hartrees.
 NAtoms=   22 NActive=   22 NUniq=   22 SFac= 1.00D+00 NAtFMM=   60 NAOKFM=F Big=F
 Integral buffers will be    131072 words long.
 Raffenetti 2 integral format.
 Two-electron integral symmetry is turned on.
 Nuclear repulsion after empirical dispersion term =      925.2633749213 Hartrees.
 ------------------------------------------------------------------------------
 Polarizable Continuum Model (PCM)
 =================================
 Model                : C-PCM.
 Atomic radii         : UFF (Universal Force Field).
 Polarization charges : Total charges.
 Charge compensation  : None.
 Solution method      : On-the-fly selection.
 Cavity type          : Scaled VdW (van der Waals Surface) (Alpha=1.100).
 Cavity algorithm     : GePol (No added spheres)
                        Default sphere list used, NSphG=   22.
                        Lebedev-Laikov grids with approx.  5.0 points / Ang**2.
                        Smoothing algorithm: York/Karplus (Gamma=1.0000).
                        Polarization charges: spherical gaussians, with
                                              point-specific exponents (IZeta= 3).
                        Self-potential: point-specific (ISelfS= 7).
                        Self-field    : sphere-specific E.n sum rule (ISelfD= 2).
 1st derivatives      : Analytical E(r).r(x)/FMM algorithm (CHGder, D1EAlg=3).
                        Cavity 1st derivative terms included.
 Solvent              : DiChloroEthane, Eps=  10.125000 Eps(inf)=   2.087447
 ------------------------------------------------------------------------------
 One-electron integrals computed using PRISM.
   1 Symmetry operations used in ECPInt.
 ECPInt:  NShTT=   15753 NPrTT=   51378 LenC2=   14561 LenP2D=   35122.
 LDataN:  DoStor=T MaxTD1= 6 Len=  172
 NBasis=   449 RedAO= T EigKep=  8.74D-06  NBF=   449
 NBsUse=   449 1.00D-06 EigRej= -1.00D+00 NBFU=   449
 Initial guess from the checkpoint file:  "d2.chk"
 B after Tr=    -0.000000   -0.000000    0.000000
         Rot=    1.000000    0.000309   -0.000017    0.000106 Ang=   0.04 deg.
 Requested convergence on RMS density matrix=1.00D-08 within 128 cycles.
 Requested convergence on MAX density matrix=1.00D-06.
 Requested convergence on             energy=1.00D-06.
 No special actions if energy rises.
 Inv3:  Mode=1 IEnd=    11001675.
 Iteration    1 A*A^-1 deviation from unit magnitude is 6.11D-15 for   1913.
 Iteration    1 A*A^-1 deviation from orthogonality  is 2.01D-15 for   1413    274.
 Iteration    1 A^-1*A deviation from unit magnitude is 6.00D-15 for   1908.
 Iteration    1 A^-1*A deviation from orthogonality  is 1.65D-15 for   1903   1758.
 Error on total polarization charges =  0.01060
 SCF Done:  E(RwB97XD) =  -3036.30957175     A.U. after    7 cycles
            NFock=  7  Conv=0.89D-08     -V/T= 2.0019
   1 Symmetry operations used in ECPInt.
 ECPInt:  NShTT=   15753 NPrTT=   51378 LenC2=   14561 LenP2D=   35122.
 LDataN:  DoStor=T MaxTD1= 7 Len=  274
 D1PCM: C-PCM CHGder 1st derivatives, ID1Alg=3 FixD1E=F DoIter=F DoCFld=F I1PDM=0.
 Calling FoFJK, ICntrl=      2127 FMM=F ISym2X=0 I1Cent= 0 IOpClX= 0 NMat=1 NMatS=1 NMatT=0.
 ***** Axes restored to original set *****
 -------------------------------------------------------------------
 Center     Atomic                   Forces (Hartrees/Bohr)
 Number     Number              X              Y              Z
 -------------------------------------------------------------------
      1        6          -0.000006722    0.000005434    0.000009147
      2        6           0.000013845    0.000001051    0.000016300
      3       35          -0.000006767   -0.000000133   -0.000006345
      4        6           0.000055590   -0.000014409   -0.000061186
      5        8          -0.000038389    0.000013514    0.000030182
      6        6          -0.000011680   -0.000004673   -0.000015500
      7        6           0.000005786    0.000009074    0.000012823
      8        6          -0.000011943   -0.000010879   -0.000002686
      9        6           0.000002072    0.000003218    0.000005655
     10        6          -0.000009658   -0.000010348    0.000007049
     11        6           0.000014198    0.000004482    0.000000712
     12        6          -0.000006251   -0.000014649    0.000016373
     13        1           0.000000709   -0.000002895   -0.000004498
     14        1          -0.000006795    0.000002276   -0.000004666
     15        1          -0.000005391   -0.000001568   -0.000003843
     16        1          -0.000002944   -0.000001352    0.000003531
     17        1          -0.000003198   -0.000004055    0.000005693
     18        1           0.000001641    0.000001311    0.000005790
     19        1           0.000000647    0.000000733    0.000005075
     20        1           0.000007934    0.000009909   -0.000008104
     21        1           0.000001439    0.000009889   -0.000004258
     22        1           0.000005879    0.000004068   -0.000007243
 -------------------------------------------------------------------
 Cartesian Forces:  Max     0.000061186 RMS     0.000014058

 GradGradGradGradGradGradGradGradGradGradGradGradGradGradGradGradGradGrad
 Berny optimization.
 Using GEDIIS/GDIIS optimizer.
 FormGI is forming the generalized inverse of G from B-inverse, IUseBI=4.
 Internal  Forces:  Max     0.000053173 RMS     0.000006842
 Search for a local minimum.
 Step number   9 out of a maximum of  114
 All quantities printed in internal units (Hartrees-Bohrs-Radians)
 Mixed Optimization -- En-DIIS/RFO-DIIS
 Swapping is turned off.
 Update second derivatives using D2CorX and points    1    2    3    4    5
                                                      6    7    8    9
 DE= -1.51D-07 DEPred=-4.49D-08 R= 3.36D+00
 Trust test= 3.36D+00 RLast= 3.00D-03 DXMaxT set to 2.62D-01
 ITU=  0  0  1  1  1 -1  1  1  0
     Eigenvalues ---    0.00247   0.00323   0.01110   0.01679   0.01784
     Eigenvalues ---    0.01953   0.02013   0.02061   0.02118   0.02174
     Eigenvalues ---    0.02189   0.02217   0.02271   0.02289   0.03067
     Eigenvalues ---    0.03255   0.07048   0.07498   0.07648   0.11640
     Eigenvalues ---    0.15679   0.15922   0.15997   0.16000   0.16000
     Eigenvalues ---    0.16001   0.16017   0.16122   0.16280   0.17353
     Eigenvalues ---    0.18362   0.21004   0.21807   0.21997   0.22080
     Eigenvalues ---    0.23588   0.24963   0.25139   0.25493   0.27900
     Eigenvalues ---    0.32906   0.33849   0.34266   0.34806   0.34864
     Eigenvalues ---    0.35057   0.35234   0.35331   0.35427   0.35450
     Eigenvalues ---    0.35760   0.36883   0.38528   0.40093   0.44111
     Eigenvalues ---    0.45212   0.47718   0.48412   0.54690   0.95786
 En-DIIS/RFO-DIIS/Sim-DIIS IScMMF=       -3 using points:     9    8    7    6    5    4    3    2
 RFO step:  Lambda=-5.76007478D-08.
 DIIS inversion failure, remove point   8.
 DIIS inversion failure, remove point   7.
 DIIS inversion failure, remove point   6.
 DIIS inversion failure, remove point   5.
 RFO-DIIS uses    4 points instead of    8
 DidBck=F Rises=F RFO-DIIS coefs:    2.48358   -1.47681   -0.15685    0.15008    0.00000
                  RFO-DIIS coefs:    0.00000    0.00000    0.00000
 Iteration  1 RMS(Cart)=  0.00079167 RMS(Int)=  0.00000056
 Iteration  2 RMS(Cart)=  0.00000058 RMS(Int)=  0.00000002
 Variable       Old X    -DE/DX   Delta X   Delta X   Delta X     New X
                                 (Linear)    (Quad)   (Total)
    R1        2.77403   0.00000   0.00005  -0.00005  -0.00000   2.77403
    R2        2.60264   0.00001  -0.00007   0.00007  -0.00000   2.60264
    R3        2.05285   0.00000  -0.00002   0.00002  -0.00000   2.05284
    R4        3.70746   0.00000  -0.00007   0.00010   0.00003   3.70749
    R5        2.91951   0.00001   0.00011  -0.00003   0.00008   2.91959
    R6        2.04795   0.00000  -0.00004   0.00003  -0.00002   2.04794
    R7        2.26889  -0.00005  -0.00021   0.00011  -0.00010   2.26879
    R8        2.82159   0.00001   0.00010  -0.00005   0.00005   2.82164
    R9        2.69361  -0.00000  -0.00003   0.00002  -0.00001   2.69360
   R10        2.69327  -0.00000  -0.00003   0.00002  -0.00001   2.69326
   R11        2.58847   0.00001   0.00001   0.00001   0.00001   2.58848
   R12        2.04493   0.00000  -0.00002   0.00002  -0.00000   2.04493
   R13        2.63450   0.00000  -0.00001   0.00000  -0.00000   2.63449
   R14        2.04158  -0.00000  -0.00005   0.00004  -0.00001   2.04157
   R15        2.64414   0.00000  -0.00002   0.00001  -0.00001   2.64413
   R16        2.04609   0.00000  -0.00001   0.00002   0.00001   2.04610
   R17        2.58278   0.00001   0.00001   0.00001   0.00002   2.58280
   R18        2.04181  -0.00000  -0.00005   0.00004  -0.00001   2.04180
   R19        2.04202   0.00000  -0.00001   0.00001   0.00000   2.04202
   R20        2.06130   0.00000  -0.00002   0.00003   0.00001   2.06130
   R21        2.06596  -0.00001  -0.00008   0.00005  -0.00004   2.06593
   R22        2.05309   0.00000  -0.00005   0.00005   0.00000   2.05309
    A1        2.22546   0.00001   0.00014  -0.00007   0.00007   2.22554
    A2        1.99351  -0.00000  -0.00003   0.00003  -0.00000   1.99351
    A3        2.06421  -0.00001  -0.00011   0.00004  -0.00007   2.06413
    A4        1.76237  -0.00001   0.00017  -0.00019  -0.00002   1.76234
    A5        1.97818   0.00000  -0.00004   0.00002  -0.00002   1.97816
    A6        2.01775  -0.00000  -0.00023   0.00017  -0.00006   2.01770
    A7        1.87475   0.00001   0.00008  -0.00003   0.00005   1.87480
    A8        1.85704  -0.00000  -0.00018   0.00006  -0.00012   1.85692
    A9        1.95319   0.00000   0.00020  -0.00006   0.00014   1.95333
   A10        2.08895   0.00001   0.00002  -0.00000   0.00002   2.08897
   A11        2.01280  -0.00001  -0.00004  -0.00003  -0.00007   2.01273
   A12        2.18134   0.00001   0.00001   0.00003   0.00005   2.18139
   A13        2.05043   0.00000   0.00000  -0.00000   0.00000   2.05043
   A14        2.15020  -0.00000   0.00000  -0.00000  -0.00000   2.15020
   A15        2.08251   0.00000  -0.00001   0.00000  -0.00000   2.08250
   A16        2.09814   0.00000   0.00002  -0.00001   0.00001   2.09815
   A17        2.07663   0.00000   0.00003  -0.00001   0.00002   2.07665
   A18        2.10841  -0.00000  -0.00005   0.00002  -0.00003   2.10838
   A19        2.07941  -0.00000  -0.00005   0.00004  -0.00001   2.07939
   A20        2.10614  -0.00000  -0.00000  -0.00000  -0.00001   2.10613
   A21        2.09764   0.00000   0.00005  -0.00003   0.00002   2.09766
   A22        2.12818   0.00000   0.00007  -0.00005   0.00002   2.12820
   A23        2.07902  -0.00000  -0.00003   0.00002  -0.00001   2.07901
   A24        2.07599  -0.00000  -0.00004   0.00003  -0.00001   2.07598
   A25        2.08865  -0.00000  -0.00007   0.00004  -0.00002   2.08863
   A26        2.09200   0.00000   0.00005  -0.00003   0.00002   2.09202
   A27        2.10254   0.00000   0.00002  -0.00002  -0.00000   2.10254
   A28        2.08948   0.00000   0.00004  -0.00002   0.00001   2.08949
   A29        2.10245   0.00000   0.00003  -0.00001   0.00002   2.10247
   A30        2.09125  -0.00000  -0.00007   0.00004  -0.00003   2.09123
   A31        1.93499  -0.00000   0.00000  -0.00010  -0.00010   1.93489
   A32        1.89154   0.00001   0.00026  -0.00008   0.00018   1.89172
   A33        1.92237  -0.00000  -0.00008   0.00003  -0.00005   1.92232
   A34        1.87210   0.00000  -0.00002   0.00003   0.00001   1.87211
   A35        1.92910  -0.00000  -0.00016   0.00006  -0.00010   1.92900
   A36        1.91262   0.00000   0.00001   0.00006   0.00007   1.91268
    D1       -1.79092   0.00000  -0.00058  -0.00002  -0.00060  -1.79152
    D2        2.49272  -0.00000  -0.00075   0.00011  -0.00064   2.49208
    D3        0.20443  -0.00001  -0.00078   0.00000  -0.00078   0.20365
    D4        1.34952   0.00000  -0.00069   0.00012  -0.00057   1.34896
    D5       -0.65003  -0.00000  -0.00086   0.00025  -0.00061  -0.65063
    D6       -2.93832  -0.00001  -0.00089   0.00015  -0.00074  -2.93906
    D7        3.12553  -0.00000  -0.00006   0.00004  -0.00002   3.12551
    D8       -0.02676  -0.00001  -0.00034   0.00006  -0.00028  -0.02704
    D9       -0.01487  -0.00000   0.00005  -0.00011  -0.00006  -0.01493
   D10        3.11603  -0.00001  -0.00023  -0.00009  -0.00032   3.11572
   D11        0.28953  -0.00000   0.00013  -0.00028  -0.00014   0.28939
   D12       -2.83740  -0.00000   0.00002  -0.00028  -0.00025  -2.83765
   D13       -1.64171   0.00000  -0.00010  -0.00004  -0.00014  -1.64184
   D14        1.51454   0.00000  -0.00020  -0.00004  -0.00025   1.51430
   D15        2.60939  -0.00000  -0.00004  -0.00006  -0.00010   2.60928
   D16       -0.51755  -0.00000  -0.00015  -0.00006  -0.00021  -0.51776
   D17       -0.82107  -0.00001  -0.00117  -0.00014  -0.00130  -0.82237
   D18        1.22919  -0.00000  -0.00103  -0.00021  -0.00124   1.22795
   D19       -2.96180   0.00000  -0.00091  -0.00017  -0.00108  -2.96288
   D20        2.33607  -0.00001  -0.00128  -0.00014  -0.00142   2.33465
   D21       -1.89686  -0.00001  -0.00115  -0.00021  -0.00136  -1.89822
   D22        0.19533  -0.00000  -0.00103  -0.00017  -0.00119   0.19414
   D23        3.12637  -0.00000  -0.00034   0.00010  -0.00024   3.12613
   D24       -0.01350  -0.00000  -0.00040   0.00012  -0.00029  -0.01379
   D25       -0.00496   0.00000  -0.00006   0.00007   0.00001  -0.00495
   D26        3.13835  -0.00000  -0.00013   0.00009  -0.00004   3.13831
   D27       -3.12700   0.00000   0.00034  -0.00010   0.00025  -3.12676
   D28        0.01653   0.00000   0.00019   0.00004   0.00023   0.01676
   D29        0.00371  -0.00000   0.00006  -0.00007  -0.00001   0.00369
   D30       -3.13594  -0.00000  -0.00010   0.00007  -0.00003  -3.13597
   D31        0.00318  -0.00000   0.00001  -0.00002  -0.00001   0.00317
   D32       -3.13913  -0.00000   0.00009  -0.00007   0.00003  -3.13911
   D33       -3.14016   0.00000   0.00008  -0.00004   0.00004  -3.14013
   D34        0.00071   0.00000   0.00016  -0.00009   0.00007   0.00078
   D35       -0.00016   0.00000   0.00005  -0.00003   0.00003  -0.00013
   D36        3.14126   0.00000   0.00005  -0.00001   0.00004   3.14130
   D37       -3.14103  -0.00000  -0.00003   0.00002  -0.00001  -3.14105
   D38        0.00038   0.00000  -0.00003   0.00003   0.00000   0.00038
   D39       -0.00108  -0.00000  -0.00006   0.00003  -0.00003  -0.00111
   D40        3.14067  -0.00000  -0.00004   0.00002  -0.00002   3.14064
   D41        3.14069  -0.00000  -0.00006   0.00001  -0.00005   3.14064
   D42       -0.00075  -0.00000  -0.00004   0.00001  -0.00004  -0.00078
   D43       -0.00075   0.00000   0.00000   0.00002   0.00003  -0.00072
   D44        3.13891   0.00000   0.00016  -0.00011   0.00005   3.13895
   D45        3.14069   0.00000  -0.00001   0.00003   0.00002   3.14070
   D46       -0.00284   0.00000   0.00014  -0.00011   0.00004  -0.00280
         Item               Value     Threshold  Converged?
 Maximum Force            0.000053     0.000450     YES
 RMS     Force            0.000007     0.000300     YES
 Maximum Displacement     0.003687     0.001800     NO 
 RMS     Displacement     0.000792     0.001200     YES
 Predicted change in Energy=-2.757853D-08
 GradGradGradGradGradGradGradGradGradGradGradGradGradGradGradGradGradGrad

                          Input orientation:                          
 ---------------------------------------------------------------------
 Center     Atomic      Atomic             Coordinates (Angstroms)
 Number     Number       Type             X           Y           Z
 ---------------------------------------------------------------------
      1          6           0       -0.611626    1.394454    0.570729
      2          6           0       -0.457653    2.189579    1.795048
      3         35           0       -1.339504    3.861086    1.268239
      4          6           0        1.013539    2.526871    2.124882
      5          8           0        1.854783    2.411345    1.276125
      6          6           0       -1.514689    0.381262    0.336725
      7          6           0       -1.490069   -0.238370   -0.946706
      8          6           0       -2.351398   -1.264072   -1.233604
      9          6           0       -3.251121   -1.688329   -0.256846
     10          6           0       -3.301075   -1.097135    1.010354
     11          6           0       -2.447635   -0.073517    1.313464
     12          6           0        1.268831    2.965153    3.529242
     13          1           0        0.080078    1.660660   -0.223480
     14          1           0       -0.992677    1.821776    2.662758
     15          1           0       -0.781606    0.113271   -1.685240
     16          1           0       -2.337544   -1.740509   -2.203125
     17          1           0       -3.931993   -2.498952   -0.484106
     18          1           0       -4.012604   -1.452015    1.741931
     19          1           0       -2.485801    0.386428    2.290537
     20          1           0        0.542786    3.717847    3.839312
     21          1           0        1.142827    2.101972    4.188193
     22          1           0        2.280391    3.350316    3.622896
 ---------------------------------------------------------------------
                    Distance matrix (angstroms):
                    1          2          3          4          5
     1  C    0.000000
     2  C    1.467954   0.000000
     3  Br   2.664696   1.961919   0.000000
     4  C    2.517722   1.544980   2.837390   0.000000
     5  O    2.759497   2.380299   3.507889   1.200594   0.000000
     6  C    1.377257   2.552262   3.606603   3.767371   4.044385
     7  C    2.395910   3.805001   4.661995   4.832108   4.811445
     8  C    3.653789   4.968571   5.792270   6.080582   6.123674
     9  C    4.141904   5.201144   6.064337   6.451967   6.725146
    10  C    3.692482   4.416252   5.338372   5.743822   6.242030
    11  C    2.465263   3.051811   4.087922   4.404560   4.968574
    12  C    3.841356   2.567040   3.566265   1.493148   2.393027
    13  H    1.086319   2.154847   3.013688   2.671418   2.441704
    14  H    2.168961   1.083721   2.494746   2.193485   3.221548
    15  H    2.599946   4.065514   4.804208   4.854384   4.582726
    16  H    4.527808   5.913118   6.665157   6.940601   6.849721
    17  H    5.224569   6.264815   7.088145   7.518245   7.790777
    18  H    4.587020   5.089371   5.966481   6.421861   7.040508
    19  H    2.736126   2.758667   3.798992   4.105401   4.895915
    20  H    4.173064   2.741441   3.189663   2.139930   3.161995
    21  H    4.082247   2.880340   4.216940   2.110570   3.013758
    22  H    4.637336   3.490734   4.348441   2.127679   2.563229
                    6          7          8          9         10
     6  C    0.000000
     7  C    1.425393   0.000000
     8  C    2.423456   1.369766   0.000000
     9  C    2.765996   2.383189   1.394114   0.000000
    10  C    2.414665   2.801303   2.442356   1.399214   0.000000
    11  C    1.425212   2.460177   2.813225   2.391460   1.366759
    12  C    4.961516   6.156964   7.326465   7.511280   6.612944
    13  H    2.119899   2.568022   3.935287   4.723742   4.534311
    14  H    2.785320   4.185670   5.152690   5.093672   4.071754
    15  H    2.167388   1.082129   2.136654   3.374104   3.883173
    16  H    3.410255   2.133828   1.080350   2.150663   3.415958
    17  H    3.848734   3.359646   2.141252   1.082748   2.143959
    18  H    3.402218   3.881350   3.413025   2.151931   1.080471
    19  H    2.181849   3.444066   3.893813   3.373350   2.122380
    20  H    5.256816   6.533768   7.676606   7.771678   6.779552
    21  H    4.985684   6.227080   7.275695   7.309688   6.330973
    22  H    5.832395   6.926493   8.144423   8.428402   7.599866
                   11         12         13         14         15
    11  C    0.000000
    12  C    5.287278   0.000000
    13  H    3.429125   4.147018   0.000000
    14  H    2.744018   2.678157   3.083364   0.000000
    15  H    3.435515   6.287157   2.296444   4.676391   0.000000
    16  H    3.893247   8.246770   4.618641   6.178621   2.475004
    17  H    3.364121   8.544705   5.785068   6.100084   4.265134
    18  H    2.129077   7.113326   5.504692   4.548141   4.963362
    19  H    1.080591   4.720326   3.811520   2.104327   4.334246
    20  H    5.449492   1.090795   4.577379   2.708692   6.728125
    21  H    5.088048   1.093241   4.559282   2.639288   6.492734
    22  H    6.277765   1.086450   4.742459   3.737817   6.930411
                   16         17         18         19         20
    16  H    0.000000
    17  H    2.464250   0.000000
    18  H    4.295640   2.461264   0.000000
    19  H    4.973815   4.256235   2.451932   0.000000
    20  H    8.637187   8.795691   7.202642   4.761239   0.000000
    21  H    8.229616   8.291724   6.722610   4.439722   1.758641
    22  H    9.010235   9.469695   8.136473   5.768570   1.789186
                   21         22
    21  H    0.000000
    22  H    1.781004   0.000000
 Stoichiometry    C10H10BrO(1+)
 Framework group  C1[X(C10H10BrO)]
 Deg. of freedom    60
 Full point group                 C1      NOp   1
 Largest Abelian subgroup         C1      NOp   1
 Largest concise Abelian subgroup C1      NOp   1
                         Standard orientation:                         
 ---------------------------------------------------------------------
 Center     Atomic      Atomic             Coordinates (Angstroms)
 Number     Number       Type             X           Y           Z
 ---------------------------------------------------------------------
      1          6           0        0.200837    0.472250   -0.518339
      2          6           0       -0.972200    0.335957    0.353612
      3         35           0       -1.650418   -1.418460   -0.204211
      4          6           0       -2.077774    1.374180    0.059053
      5          8           0       -2.065626    1.977542   -0.978846
      6          6           0        1.523592    0.294020   -0.178648
      7          6           0        2.495440    0.462830   -1.207609
      8          6           0        3.828297    0.316691   -0.927620
      9          6           0        4.217917   -0.002025    0.372446
     10          6           0        3.286941   -0.177391    1.402170
     11          6           0        1.953248   -0.033750    1.140137
     12          6           0       -3.090099    1.553688    1.141858
     13          1           0       -0.034905    0.744798   -1.543146
     14          1           0       -0.761304    0.259369    1.413851
     15          1           0        2.163001    0.708627   -2.207645
     16          1           0        4.571295    0.445223   -1.701305
     17          1           0        5.271566   -0.117728    0.593305
     18          1           0        3.626105   -0.424905    2.397721
     19          1           0        1.232032   -0.171048    1.933026
     20          1           0       -3.448452    0.588605    1.502456
     21          1           0       -2.608174    2.056347    1.984626
     22          1           0       -3.918717    2.157765    0.782891
 ---------------------------------------------------------------------
 Rotational constants (GHZ):           1.1836985           0.3693011           0.3320405
 Standard basis: def2TZVP (5D, 7F)
 There are   511 symmetry adapted cartesian basis functions of A   symmetry.
 There are   449 symmetry adapted basis functions of A   symmetry.
   449 basis functions,   755 primitive gaussians,   511 cartesian basis functions
    56 alpha electrons       56 beta electrons
       nuclear repulsion energy       925.2587545360 Hartrees.
 NAtoms=   22 NActive=   22 NUniq=   22 SFac= 1.00D+00 NAtFMM=   60 NAOKFM=F Big=F
 Integral buffers will be    131072 words long.
 Raffenetti 2 integral format.
 Two-electron integral symmetry is turned on.
 Nuclear repulsion after empirical dispersion term =      925.2457327790 Hartrees.
 ------------------------------------------------------------------------------
 Polarizable Continuum Model (PCM)
 =================================
 Model                : C-PCM.
 Atomic radii         : UFF (Universal Force Field).
 Polarization charges : Total charges.
 Charge compensation  : None.
 Solution method      : On-the-fly selection.
 Cavity type          : Scaled VdW (van der Waals Surface) (Alpha=1.100).
 Cavity algorithm     : GePol (No added spheres)
                        Default sphere list used, NSphG=   22.
                        Lebedev-Laikov grids with approx.  5.0 points / Ang**2.
                        Smoothing algorithm: York/Karplus (Gamma=1.0000).
                        Polarization charges: spherical gaussians, with
                                              point-specific exponents (IZeta= 3).
                        Self-potential: point-specific (ISelfS= 7).
                        Self-field    : sphere-specific E.n sum rule (ISelfD= 2).
 1st derivatives      : Analytical E(r).r(x)/FMM algorithm (CHGder, D1EAlg=3).
                        Cavity 1st derivative terms included.
 Solvent              : DiChloroEthane, Eps=  10.125000 Eps(inf)=   2.087447
 ------------------------------------------------------------------------------
 One-electron integrals computed using PRISM.
   1 Symmetry operations used in ECPInt.
 ECPInt:  NShTT=   15753 NPrTT=   51378 LenC2=   14561 LenP2D=   35121.
 LDataN:  DoStor=T MaxTD1= 6 Len=  172
 NBasis=   449 RedAO= T EigKep=  8.74D-06  NBF=   449
 NBsUse=   449 1.00D-06 EigRej= -1.00D+00 NBFU=   449
 Initial guess from the checkpoint file:  "d2.chk"
 B after Tr=     0.000000    0.000000   -0.000000
         Rot=    1.000000    0.000390   -0.000010    0.000076 Ang=   0.05 deg.
 Requested convergence on RMS density matrix=1.00D-08 within 128 cycles.
 Requested convergence on MAX density matrix=1.00D-06.
 Requested convergence on             energy=1.00D-06.
 No special actions if energy rises.
 Inv3:  Mode=1 IEnd=    11001675.
 Iteration    1 A*A^-1 deviation from unit magnitude is 5.77D-15 for   1904.
 Iteration    1 A*A^-1 deviation from orthogonality  is 1.92D-15 for   1904   1208.
 Iteration    1 A^-1*A deviation from unit magnitude is 5.77D-15 for   1894.
 Iteration    1 A^-1*A deviation from orthogonality  is 2.28D-15 for   1144    128.
 Error on total polarization charges =  0.01060
 SCF Done:  E(RwB97XD) =  -3036.30957192     A.U. after    7 cycles
            NFock=  7  Conv=0.71D-08     -V/T= 2.0019
   1 Symmetry operations used in ECPInt.
 ECPInt:  NShTT=   15753 NPrTT=   51378 LenC2=   14561 LenP2D=   35121.
 LDataN:  DoStor=T MaxTD1= 7 Len=  274
 D1PCM: C-PCM CHGder 1st derivatives, ID1Alg=3 FixD1E=F DoIter=F DoCFld=F I1PDM=0.
 Calling FoFJK, ICntrl=      2127 FMM=F ISym2X=0 I1Cent= 0 IOpClX= 0 NMat=1 NMatS=1 NMatT=0.
 ***** Axes restored to original set *****
 -------------------------------------------------------------------
 Center     Atomic                   Forces (Hartrees/Bohr)
 Number     Number              X              Y              Z
 -------------------------------------------------------------------
      1        6           0.000000404    0.000010985   -0.000003352
      2        6           0.000007044    0.000003803    0.000001868
      3       35          -0.000005920   -0.000004518   -0.000008577
      4        6          -0.000011973   -0.000004990    0.000011116
      5        8           0.000010679    0.000003422   -0.000021158
      6        6          -0.000008056   -0.000006940   -0.000005160
      7        6          -0.000000851    0.000003120    0.000002071
      8        6          -0.000004914   -0.000000483    0.000006393
      9        6          -0.000003901   -0.000004640    0.000003979
     10        6           0.000002076   -0.000000610    0.000002198
     11        6           0.000000544    0.000001918    0.000005710
     12        6           0.000006206   -0.000004828    0.000002578
     13        1           0.000001131   -0.000002158   -0.000002099
     14        1           0.000005402    0.000000010    0.000006039
     15        1          -0.000001789   -0.000001758   -0.000001293
     16        1          -0.000004483   -0.000002975    0.000000420
     17        1          -0.000003066   -0.000002468    0.000005736
     18        1           0.000000136   -0.000001525    0.000008153
     19        1           0.000002246    0.000001442    0.000003683
     20        1           0.000002917    0.000007226   -0.000007675
     21        1           0.000000255    0.000003261   -0.000004325
     22        1           0.000005914    0.000002704   -0.000006305
 -------------------------------------------------------------------
 Cartesian Forces:  Max     0.000021158 RMS     0.000005590

 GradGradGradGradGradGradGradGradGradGradGradGradGradGradGradGradGradGrad
 Berny optimization.
 Using GEDIIS/GDIIS optimizer.
 FormGI is forming the generalized inverse of G from B-inverse, IUseBI=4.
 Internal  Forces:  Max     0.000018505 RMS     0.000003753
 Search for a local minimum.
 Step number  10 out of a maximum of  114
 All quantities printed in internal units (Hartrees-Bohrs-Radians)
 Mixed Optimization -- En-DIIS/RFO-DIIS
 Swapping is turned off.
 Update second derivatives using D2CorX and points    1    2    3    4    5
                                                      6    7    8    9   10
 DE= -1.65D-07 DEPred=-2.76D-08 R= 5.97D+00
 Trust test= 5.97D+00 RLast= 3.62D-03 DXMaxT set to 2.62D-01
 ITU=  0  0  0  1  1  1 -1  1  1  0
     Eigenvalues ---    0.00222   0.00251   0.01134   0.01684   0.01786
     Eigenvalues ---    0.01930   0.02006   0.02057   0.02082   0.02145
     Eigenvalues ---    0.02183   0.02207   0.02283   0.02289   0.03049
     Eigenvalues ---    0.03140   0.07054   0.07417   0.07656   0.11553
     Eigenvalues ---    0.15593   0.15846   0.15999   0.16000   0.16000
     Eigenvalues ---    0.16002   0.16014   0.16140   0.16260   0.17387
     Eigenvalues ---    0.18220   0.21034   0.21950   0.21997   0.22673
     Eigenvalues ---    0.23619   0.24911   0.25044   0.25533   0.28100
     Eigenvalues ---    0.32966   0.33856   0.34264   0.34831   0.34868
     Eigenvalues ---    0.35057   0.35235   0.35330   0.35427   0.35492
     Eigenvalues ---    0.35803   0.36560   0.38630   0.40091   0.44126
     Eigenvalues ---    0.45269   0.47722   0.48300   0.52194   1.07076
 En-DIIS/RFO-DIIS/Sim-DIIS IScMMF=       -3 using points:    10    9    8    7    6    5    4    3    2
 RFO step:  Lambda=-2.18175104D-08.
 DIIS inversion failure, remove point   9.
 DIIS inversion failure, remove point   8.
 DIIS inversion failure, remove point   7.
 DIIS inversion failure, remove point   6.
 DIIS inversion failure, remove point   5.
 DIIS inversion failure, remove point   4.
 DIIS inversion failure, remove point   3.
 RFO-DIIS uses    2 points instead of    9
 DidBck=F Rises=F RFO-DIIS coefs:    1.64461   -0.64461    0.00000    0.00000    0.00000
                  RFO-DIIS coefs:    0.00000    0.00000    0.00000    0.00000
 Iteration  1 RMS(Cart)=  0.00044477 RMS(Int)=  0.00000022
 Iteration  2 RMS(Cart)=  0.00000023 RMS(Int)=  0.00000000
 Variable       Old X    -DE/DX   Delta X   Delta X   Delta X     New X
                                 (Linear)    (Quad)   (Total)
    R1        2.77403   0.00000  -0.00000   0.00001   0.00000   2.77404
    R2        2.60264   0.00001  -0.00000   0.00001   0.00001   2.60265
    R3        2.05284   0.00000  -0.00000   0.00000   0.00000   2.05284
    R4        3.70749   0.00000   0.00002  -0.00000   0.00001   3.70750
    R5        2.91959  -0.00000   0.00005  -0.00002   0.00003   2.91962
    R6        2.04794   0.00000  -0.00001   0.00001   0.00000   2.04794
    R7        2.26879   0.00002  -0.00006   0.00004  -0.00003   2.26877
    R8        2.82164   0.00000   0.00003  -0.00000   0.00003   2.82167
    R9        2.69360  -0.00000  -0.00001  -0.00000  -0.00001   2.69359
   R10        2.69326   0.00000  -0.00001   0.00000  -0.00000   2.69326
   R11        2.58848   0.00000   0.00001   0.00000   0.00001   2.58849
   R12        2.04493   0.00000  -0.00000   0.00000   0.00000   2.04493
   R13        2.63449   0.00000  -0.00000   0.00000   0.00000   2.63450
   R14        2.04157   0.00000  -0.00001   0.00001   0.00000   2.04157
   R15        2.64413   0.00000  -0.00000   0.00000  -0.00000   2.64413
   R16        2.04610   0.00000   0.00000   0.00000   0.00000   2.04610
   R17        2.58280   0.00000   0.00001  -0.00000   0.00001   2.58281
   R18        2.04180   0.00000  -0.00001   0.00001   0.00000   2.04180
   R19        2.04202   0.00000   0.00000   0.00000   0.00000   2.04202
   R20        2.06130   0.00000   0.00001   0.00001   0.00001   2.06131
   R21        2.06593  -0.00000  -0.00002   0.00000  -0.00002   2.06590
   R22        2.05309   0.00000   0.00000  -0.00000   0.00000   2.05309
    A1        2.22554   0.00000   0.00005  -0.00001   0.00004   2.22558
    A2        1.99351  -0.00000  -0.00000  -0.00000  -0.00000   1.99351
    A3        2.06413  -0.00000  -0.00005   0.00001  -0.00003   2.06410
    A4        1.76234  -0.00002  -0.00001  -0.00009  -0.00010   1.76224
    A5        1.97816   0.00000  -0.00002   0.00002   0.00000   1.97816
    A6        2.01770   0.00001  -0.00004   0.00004   0.00001   2.01771
    A7        1.87480   0.00001   0.00003   0.00006   0.00009   1.87489
    A8        1.85692   0.00000  -0.00008   0.00004  -0.00004   1.85689
    A9        1.95333  -0.00001   0.00009  -0.00006   0.00003   1.95336
   A10        2.08897  -0.00000   0.00001  -0.00002  -0.00001   2.08896
   A11        2.01273  -0.00000  -0.00004   0.00002  -0.00002   2.01270
   A12        2.18139   0.00000   0.00003  -0.00000   0.00003   2.18142
   A13        2.05043   0.00000   0.00000  -0.00000  -0.00000   2.05043
   A14        2.15020  -0.00000  -0.00000  -0.00000  -0.00000   2.15020
   A15        2.08250   0.00000  -0.00000   0.00001   0.00000   2.08251
   A16        2.09815  -0.00000   0.00000  -0.00001  -0.00000   2.09814
   A17        2.07665   0.00000   0.00001  -0.00000   0.00001   2.07667
   A18        2.10838   0.00000  -0.00002   0.00001  -0.00001   2.10837
   A19        2.07939   0.00000  -0.00001   0.00001   0.00000   2.07939
   A20        2.10613  -0.00000  -0.00000  -0.00000  -0.00001   2.10612
   A21        2.09766  -0.00000   0.00001  -0.00001   0.00001   2.09767
   A22        2.12820  -0.00000   0.00001  -0.00001   0.00000   2.12820
   A23        2.07901   0.00000  -0.00001   0.00001  -0.00000   2.07901
   A24        2.07598   0.00000  -0.00001   0.00000  -0.00000   2.07598
   A25        2.08863   0.00000  -0.00001   0.00001  -0.00000   2.08862
   A26        2.09202  -0.00000   0.00001  -0.00000   0.00001   2.09203
   A27        2.10254  -0.00000  -0.00000  -0.00000  -0.00000   2.10253
   A28        2.08949  -0.00000   0.00001  -0.00001   0.00000   2.08949
   A29        2.10247  -0.00000   0.00001  -0.00000   0.00001   2.10247
   A30        2.09123   0.00000  -0.00002   0.00001  -0.00001   2.09122
   A31        1.93489  -0.00001  -0.00007  -0.00002  -0.00009   1.93480
   A32        1.89172   0.00000   0.00012  -0.00002   0.00010   1.89182
   A33        1.92232   0.00000  -0.00003   0.00002  -0.00001   1.92230
   A34        1.87211   0.00000   0.00001   0.00000   0.00001   1.87212
   A35        1.92900   0.00000  -0.00006   0.00001  -0.00006   1.92895
   A36        1.91268   0.00000   0.00004   0.00001   0.00006   1.91274
    D1       -1.79152   0.00001  -0.00039   0.00025  -0.00014  -1.79166
    D2        2.49208  -0.00000  -0.00041   0.00022  -0.00019   2.49189
    D3        0.20365   0.00000  -0.00050   0.00026  -0.00024   0.20341
    D4        1.34896   0.00001  -0.00037   0.00018  -0.00018   1.34877
    D5       -0.65063  -0.00000  -0.00039   0.00016  -0.00023  -0.65087
    D6       -2.93906  -0.00000  -0.00048   0.00019  -0.00029  -2.93935
    D7        3.12551  -0.00000  -0.00001  -0.00010  -0.00011   3.12540
    D8       -0.02704  -0.00000  -0.00018  -0.00003  -0.00020  -0.02724
    D9       -0.01493  -0.00000  -0.00004  -0.00003  -0.00007  -0.01499
   D10        3.11572  -0.00000  -0.00020   0.00004  -0.00016   3.11556
   D11        0.28939  -0.00000  -0.00009   0.00003  -0.00006   0.28933
   D12       -2.83765  -0.00001  -0.00016   0.00003  -0.00013  -2.83779
   D13       -1.64184   0.00001  -0.00009   0.00010   0.00001  -1.64183
   D14        1.51430   0.00001  -0.00016   0.00009  -0.00007   1.51423
   D15        2.60928  -0.00000  -0.00007   0.00005  -0.00002   2.60926
   D16       -0.51776  -0.00000  -0.00014   0.00004  -0.00009  -0.51786
   D17       -0.82237  -0.00000  -0.00084  -0.00012  -0.00096  -0.82333
   D18        1.22795  -0.00000  -0.00080  -0.00014  -0.00094   1.22701
   D19       -2.96288  -0.00000  -0.00069  -0.00013  -0.00082  -2.96370
   D20        2.33465  -0.00000  -0.00092  -0.00013  -0.00104   2.33360
   D21       -1.89822  -0.00000  -0.00087  -0.00015  -0.00102  -1.89924
   D22        0.19414  -0.00000  -0.00077  -0.00013  -0.00090   0.19324
   D23        3.12613   0.00000  -0.00015   0.00008  -0.00008   3.12605
   D24       -0.01379   0.00000  -0.00018   0.00009  -0.00010  -0.01389
   D25       -0.00495   0.00000   0.00000   0.00001   0.00001  -0.00494
   D26        3.13831   0.00000  -0.00003   0.00002  -0.00001   3.13830
   D27       -3.12676   0.00000   0.00016  -0.00003   0.00012  -3.12664
   D28        0.01676  -0.00000   0.00015  -0.00008   0.00007   0.01683
   D29        0.00369   0.00000  -0.00001   0.00004   0.00003   0.00372
   D30       -3.13597  -0.00000  -0.00002  -0.00000  -0.00003  -3.13600
   D31        0.00317  -0.00000  -0.00001  -0.00003  -0.00004   0.00312
   D32       -3.13911  -0.00000   0.00002  -0.00002  -0.00001  -3.13911
   D33       -3.14013  -0.00000   0.00002  -0.00004  -0.00002  -3.14015
   D34        0.00078  -0.00000   0.00005  -0.00003   0.00001   0.00080
   D35       -0.00013   0.00000   0.00002   0.00001   0.00003  -0.00010
   D36        3.14130   0.00000   0.00002   0.00001   0.00003   3.14133
   D37       -3.14105   0.00000  -0.00001   0.00000  -0.00001  -3.14105
   D38        0.00038  -0.00000   0.00000  -0.00001  -0.00001   0.00038
   D39       -0.00111   0.00000  -0.00002   0.00003   0.00001  -0.00110
   D40        3.14064   0.00000  -0.00002   0.00002   0.00001   3.14065
   D41        3.14064   0.00000  -0.00003   0.00004   0.00001   3.14065
   D42       -0.00078   0.00000  -0.00002   0.00003   0.00001  -0.00078
   D43       -0.00072  -0.00000   0.00002  -0.00006  -0.00004  -0.00076
   D44        3.13895  -0.00000   0.00003  -0.00002   0.00002   3.13897
   D45        3.14070  -0.00000   0.00001  -0.00005  -0.00004   3.14067
   D46       -0.00280  -0.00000   0.00002  -0.00000   0.00002  -0.00278
         Item               Value     Threshold  Converged?
 Maximum Force            0.000019     0.000450     YES
 RMS     Force            0.000004     0.000300     YES
 Maximum Displacement     0.002276     0.001800     NO 
 RMS     Displacement     0.000445     0.001200     YES
 Predicted change in Energy=-1.090879D-08
 GradGradGradGradGradGradGradGradGradGradGradGradGradGradGradGradGradGrad

                          Input orientation:                          
 ---------------------------------------------------------------------
 Center     Atomic      Atomic             Coordinates (Angstroms)
 Number     Number       Type             X           Y           Z
 ---------------------------------------------------------------------
      1          6           0       -0.611683    1.394514    0.570715
      2          6           0       -0.457661    2.189645    1.795027
      3         35           0       -1.339324    3.861181    1.267966
      4          6           0        1.013580    2.526706    2.124956
      5          8           0        1.854856    2.410960    1.276281
      6          6           0       -1.514746    0.381317    0.336699
      7          6           0       -1.490226   -0.238193   -0.946787
      8          6           0       -2.351497   -1.263953   -1.233672
      9          6           0       -3.251026   -1.688419   -0.256821
     10          6           0       -3.300869   -1.097354    1.010443
     11          6           0       -2.447513   -0.073647    1.313519
     12          6           0        1.268790    2.965154    3.529296
     13          1           0        0.079969    1.660744   -0.223531
     14          1           0       -0.992842    1.821987    2.662702
     15          1           0       -0.781903    0.113589   -1.685392
     16          1           0       -2.337717   -1.740293   -2.203242
     17          1           0       -3.931832   -2.499105   -0.484062
     18          1           0       -4.012238   -1.452392    1.742098
     19          1           0       -2.485588    0.386186    2.290649
     20          1           0        0.543399    3.718738    3.838754
     21          1           0        1.141623    2.102385    4.188544
     22          1           0        2.280689    3.349369    3.623188
 ---------------------------------------------------------------------
                    Distance matrix (angstroms):
                    1          2          3          4          5
     1  C    0.000000
     2  C    1.467956   0.000000
     3  Br   2.664595   1.961927   0.000000
     4  C    2.517738   1.544996   2.837502   0.000000
     5  O    2.759493   2.380297   3.507991   1.200580   0.000000
     6  C    1.377264   2.552293   3.606589   3.767359   4.044315
     7  C    2.395910   3.805014   4.661842   4.832113   4.811405
     8  C    3.653794   4.968599   5.792209   6.080561   6.123582
     9  C    4.141911   5.201188   6.064457   6.451900   6.724979
    10  C    3.692490   4.416307   5.338637   5.743729   6.241830
    11  C    2.465264   3.051861   4.088158   4.404479   4.968405
    12  C    3.841391   2.567048   3.566334   1.493164   2.393048
    13  H    1.086319   2.154846   3.013451   2.671500   2.441820
    14  H    2.168968   1.083721   2.494725   2.193520   3.221558
    15  H    2.599955   4.065521   4.803904   4.854446   4.582785
    16  H    4.527808   5.913136   6.665027   6.940589   6.849646
    17  H    5.224578   6.264862   7.088296   7.518168   7.790591
    18  H    4.587024   5.089426   5.966853   6.421733   7.040261
    19  H    2.736132   2.758730   3.799394   4.105296   4.895723
    20  H    4.173284   2.741726   3.189653   2.139886   3.161720
    21  H    4.082138   2.879974   4.216425   2.110649   3.014166
    22  H    4.637334   3.490801   4.348967   2.127684   2.563186
                    6          7          8          9         10
     6  C    0.000000
     7  C    1.425388   0.000000
     8  C    2.423454   1.369772   0.000000
     9  C    2.765997   2.383197   1.394116   0.000000
    10  C    2.414670   2.801309   2.442357   1.399214   0.000000
    11  C    1.425210   2.460174   2.813223   2.391461   1.366764
    12  C    4.961548   6.157022   7.326506   7.511269   6.612894
    13  H    2.119884   2.567990   3.935259   4.723719   4.534298
    14  H    2.785355   4.185707   5.152737   5.093718   4.071793
    15  H    2.167392   1.082131   2.136656   3.374109   3.883181
    16  H    3.410251   2.133828   1.080350   2.150669   3.415963
    17  H    3.848738   3.359655   2.141255   1.082750   2.143960
    18  H    3.402220   3.881357   3.413030   2.151937   1.080471
    19  H    2.181852   3.444066   3.893813   3.373350   2.122382
    20  H    5.257255   6.534090   7.677052   7.772306   6.780300
    21  H    4.985487   6.227083   7.275613   7.309366   6.330433
    22  H    5.832296   6.926404   8.144260   8.428146   7.599577
                   11         12         13         14         15
    11  C    0.000000
    12  C    5.287239   0.000000
    13  H    3.429111   4.147107   0.000000
    14  H    2.744047   2.678207   3.083385   0.000000
    15  H    3.435517   6.287267   2.296421   4.676435   0.000000
    16  H    3.893246   8.246824   4.618605   6.178668   2.474996
    17  H    3.364126   8.544685   5.785046   6.100133   4.265139
    18  H    2.129080   7.113231   5.504677   4.548167   4.963371
    19  H    1.080593   4.720241   3.811519   2.104338   4.334254
    20  H    5.450188   1.090801   4.577364   2.709390   6.728277
    21  H    5.087513   1.093229   4.559448   2.638704   6.492949
    22  H    6.277540   1.086451   4.742560   3.737838   6.930423
                   16         17         18         19         20
    16  H    0.000000
    17  H    2.464260   0.000000
    18  H    4.295651   2.461272   0.000000
    19  H    4.973815   4.256237   2.451926   0.000000
    20  H    8.637566   8.796363   7.203498   4.762067   0.000000
    21  H    8.229636   8.291375   6.721891   4.438918   1.758642
    22  H    9.010084   9.469402   8.136114   5.768319   1.789156
                   21         22
    21  H    0.000000
    22  H    1.781030   0.000000
 Stoichiometry    C10H10BrO(1+)
 Framework group  C1[X(C10H10BrO)]
 Deg. of freedom    60
 Full point group                 C1      NOp   1
 Largest Abelian subgroup         C1      NOp   1
 Largest concise Abelian subgroup C1      NOp   1
                         Standard orientation:                         
 ---------------------------------------------------------------------
 Center     Atomic      Atomic             Coordinates (Angstroms)
 Number     Number       Type             X           Y           Z
 ---------------------------------------------------------------------
      1          6           0        0.200816    0.471889   -0.518483
      2          6           0       -0.972228    0.336041    0.353530
      3         35           0       -1.650486   -1.418536   -0.203770
      4          6           0       -2.077680    1.374323    0.058640
      5          8           0       -2.065427    1.977372   -0.979423
      6          6           0        1.523587    0.293808   -0.178750
      7          6           0        2.495387    0.461978   -1.207854
      8          6           0        3.828263    0.316041   -0.927820
      9          6           0        4.217942   -0.001788    0.372447
     10          6           0        3.287009   -0.176498    1.402321
     11          6           0        1.953297   -0.033094    1.140230
     12          6           0       -3.090062    1.554173    1.141356
     13          1           0       -0.034924    0.743905   -1.543433
     14          1           0       -0.761333    0.259725    1.413790
     15          1           0        2.162913    0.707112   -2.208043
     16          1           0        4.571223    0.444088   -1.701623
     17          1           0        5.271605   -0.117303    0.593346
     18          1           0        3.626210   -0.423325    2.398031
     19          1           0        1.232118   -0.169875    1.933245
     20          1           0       -3.449192    0.589170    1.501415
     21          1           0       -2.607991    2.056095    1.984464
     22          1           0       -3.918199    2.158945    0.782447
 ---------------------------------------------------------------------
 Rotational constants (GHZ):           1.1836550           0.3692972           0.3320394
 Standard basis: def2TZVP (5D, 7F)
 There are   511 symmetry adapted cartesian basis functions of A   symmetry.
 There are   449 symmetry adapted basis functions of A   symmetry.
   449 basis functions,   755 primitive gaussians,   511 cartesian basis functions
    56 alpha electrons       56 beta electrons
       nuclear repulsion energy       925.2546802527 Hartrees.
 NAtoms=   22 NActive=   22 NUniq=   22 SFac= 1.00D+00 NAtFMM=   60 NAOKFM=F Big=F
 Integral buffers will be    131072 words long.
 Raffenetti 2 integral format.
 Two-electron integral symmetry is turned on.
 Nuclear repulsion after empirical dispersion term =      925.2416585500 Hartrees.
 ------------------------------------------------------------------------------
 Polarizable Continuum Model (PCM)
 =================================
 Model                : C-PCM.
 Atomic radii         : UFF (Universal Force Field).
 Polarization charges : Total charges.
 Charge compensation  : None.
 Solution method      : On-the-fly selection.
 Cavity type          : Scaled VdW (van der Waals Surface) (Alpha=1.100).
 Cavity algorithm     : GePol (No added spheres)
                        Default sphere list used, NSphG=   22.
                        Lebedev-Laikov grids with approx.  5.0 points / Ang**2.
                        Smoothing algorithm: York/Karplus (Gamma=1.0000).
                        Polarization charges: spherical gaussians, with
                                              point-specific exponents (IZeta= 3).
                        Self-potential: point-specific (ISelfS= 7).
                        Self-field    : sphere-specific E.n sum rule (ISelfD= 2).
 1st derivatives      : Analytical E(r).r(x)/FMM algorithm (CHGder, D1EAlg=3).
                        Cavity 1st derivative terms included.
 Solvent              : DiChloroEthane, Eps=  10.125000 Eps(inf)=   2.087447
 ------------------------------------------------------------------------------
 One-electron integrals computed using PRISM.
   1 Symmetry operations used in ECPInt.
 ECPInt:  NShTT=   15753 NPrTT=   51378 LenC2=   14561 LenP2D=   35121.
 LDataN:  DoStor=T MaxTD1= 6 Len=  172
 NBasis=   449 RedAO= T EigKep=  8.74D-06  NBF=   449
 NBsUse=   449 1.00D-06 EigRej= -1.00D+00 NBFU=   449
 Initial guess from the checkpoint file:  "d2.chk"
 B after Tr=    -0.000000    0.000000   -0.000000
         Rot=    1.000000    0.000194   -0.000002    0.000010 Ang=   0.02 deg.
 Requested convergence on RMS density matrix=1.00D-08 within 128 cycles.
 Requested convergence on MAX density matrix=1.00D-06.
 Requested convergence on             energy=1.00D-06.
 No special actions if energy rises.
 Inv3:  Mode=1 IEnd=    11001675.
 Iteration    1 A*A^-1 deviation from unit magnitude is 4.55D-15 for   1908.
 Iteration    1 A*A^-1 deviation from orthogonality  is 1.73D-15 for   1892    396.
 Iteration    1 A^-1*A deviation from unit magnitude is 4.55D-15 for   1908.
 Iteration    1 A^-1*A deviation from orthogonality  is 1.71D-15 for   1907   1779.
 Error on total polarization charges =  0.01060
 SCF Done:  E(RwB97XD) =  -3036.30957200     A.U. after    6 cycles
            NFock=  6  Conv=0.60D-08     -V/T= 2.0019
   1 Symmetry operations used in ECPInt.
 ECPInt:  NShTT=   15753 NPrTT=   51378 LenC2=   14561 LenP2D=   35121.
 LDataN:  DoStor=T MaxTD1= 7 Len=  274
 D1PCM: C-PCM CHGder 1st derivatives, ID1Alg=3 FixD1E=F DoIter=F DoCFld=F I1PDM=0.
 Calling FoFJK, ICntrl=      2127 FMM=F ISym2X=0 I1Cent= 0 IOpClX= 0 NMat=1 NMatS=1 NMatT=0.
 ***** Axes restored to original set *****
 -------------------------------------------------------------------
 Center     Atomic                   Forces (Hartrees/Bohr)
 Number     Number              X              Y              Z
 -------------------------------------------------------------------
      1        6           0.000000087    0.000012017   -0.000008179
      2        6           0.000004199    0.000001025   -0.000001522
      3       35          -0.000002972   -0.000004083   -0.000006252
      4        6          -0.000032127    0.000003721    0.000030410
      5        8           0.000024013   -0.000000357   -0.000032011
      6        6          -0.000006458   -0.000005681    0.000001330
      7        6          -0.000004230   -0.000000659   -0.000001164
      8        6          -0.000002013    0.000001670    0.000009238
      9        6          -0.000004534   -0.000004793    0.000002985
     10        6           0.000004811    0.000003550    0.000000352
     11        6          -0.000000792   -0.000002020    0.000006404
     12        6           0.000010535   -0.000001553   -0.000008356
     13        1           0.000001960   -0.000002336   -0.000000226
     14        1           0.000008195   -0.000001294    0.000006390
     15        1          -0.000001717   -0.000002071    0.000000488
     16        1          -0.000005357   -0.000003150    0.000000707
     17        1          -0.000002152   -0.000001693    0.000005972
     18        1           0.000000067   -0.000001810    0.000007650
     19        1           0.000002563    0.000001972    0.000002334
     20        1           0.000000624    0.000004876   -0.000006828
     21        1          -0.000000016    0.000000910   -0.000003173
     22        1           0.000005314    0.000001760   -0.000006549
 -------------------------------------------------------------------
 Cartesian Forces:  Max     0.000032127 RMS     0.000008543

 GradGradGradGradGradGradGradGradGradGradGradGradGradGradGradGradGradGrad
 Berny optimization.
 Using GEDIIS/GDIIS optimizer.
 FormGI is forming the generalized inverse of G from B-inverse, IUseBI=4.
 Internal  Forces:  Max     0.000035904 RMS     0.000004412
 Search for a local minimum.
 Step number  11 out of a maximum of  114
 All quantities printed in internal units (Hartrees-Bohrs-Radians)
 Mixed Optimization -- En-DIIS/RFO-DIIS
 Swapping is turned off.
 Update second derivatives using D2CorX and points    1    2    3    4    5
                                                      6    7    8    9   10
                                                     11
 DE= -7.89D-08 DEPred=-1.09D-08 R= 7.23D+00
 Trust test= 7.23D+00 RLast= 2.44D-03 DXMaxT set to 2.62D-01
 ITU=  0  0  0  0  1  1  1 -1  1  1  0
     Eigenvalues ---    0.00151   0.00256   0.00954   0.01710   0.01849
     Eigenvalues ---    0.01959   0.02037   0.02065   0.02123   0.02162
     Eigenvalues ---    0.02190   0.02211   0.02286   0.02295   0.03056
     Eigenvalues ---    0.03102   0.07115   0.07292   0.07703   0.11787
     Eigenvalues ---    0.15229   0.15779   0.15998   0.16000   0.16000
     Eigenvalues ---    0.16001   0.16012   0.16104   0.16329   0.16685
     Eigenvalues ---    0.17525   0.21045   0.21998   0.22015   0.22636
     Eigenvalues ---    0.23602   0.24944   0.25211   0.25655   0.28418
     Eigenvalues ---    0.33827   0.34046   0.34278   0.34853   0.34866
     Eigenvalues ---    0.35036   0.35239   0.35353   0.35427   0.35562
     Eigenvalues ---    0.35845   0.36044   0.38585   0.40081   0.44106
     Eigenvalues ---    0.45278   0.47724   0.47831   0.52555   1.13004
 En-DIIS/RFO-DIIS/Sim-DIIS IScMMF=       -3 using points:    11   10    9    8    7    6    5    4    3    2
 RFO step:  Lambda=-1.86044046D-08.
 DIIS inversion failure, remove point  10.
 DIIS inversion failure, remove point   9.
 DIIS inversion failure, remove point   8.
 DIIS inversion failure, remove point   7.
 DIIS inversion failure, remove point   6.
 DIIS inversion failure, remove point   5.
 DIIS inversion failure, remove point   4.
 DIIS inversion failure, remove point   3.
 RFO-DIIS uses    2 points instead of   10
 DidBck=F Rises=F RFO-DIIS coefs:    2.03645   -1.03645    0.00000    0.00000    0.00000
                  RFO-DIIS coefs:    0.00000    0.00000    0.00000    0.00000    0.00000
 Iteration  1 RMS(Cart)=  0.00043104 RMS(Int)=  0.00000021
 Iteration  2 RMS(Cart)=  0.00000022 RMS(Int)=  0.00000000
 Variable       Old X    -DE/DX   Delta X   Delta X   Delta X     New X
                                 (Linear)    (Quad)   (Total)
    R1        2.77404   0.00000   0.00000  -0.00000   0.00000   2.77404
    R2        2.60265   0.00001   0.00001   0.00002   0.00003   2.60268
    R3        2.05284   0.00000   0.00000   0.00000   0.00000   2.05285
    R4        3.70750  -0.00000   0.00002   0.00002   0.00003   3.70754
    R5        2.91962  -0.00001   0.00003  -0.00003   0.00000   2.91962
    R6        2.04794   0.00000   0.00000   0.00001   0.00001   2.04794
    R7        2.26877   0.00004  -0.00003   0.00003   0.00000   2.26877
    R8        2.82167  -0.00001   0.00003  -0.00002   0.00001   2.82168
    R9        2.69359   0.00000  -0.00001  -0.00000  -0.00001   2.69358
   R10        2.69326   0.00000  -0.00000  -0.00000  -0.00001   2.69325
   R11        2.58849  -0.00000   0.00001   0.00000   0.00001   2.58851
   R12        2.04493   0.00000   0.00000   0.00000   0.00000   2.04494
   R13        2.63450  -0.00000   0.00000  -0.00000   0.00000   2.63450
   R14        2.04157   0.00000   0.00000   0.00000   0.00001   2.04157
   R15        2.64413   0.00000  -0.00000   0.00000   0.00000   2.64413
   R16        2.04610   0.00000   0.00000   0.00000   0.00000   2.04610
   R17        2.58281  -0.00000   0.00001   0.00000   0.00001   2.58282
   R18        2.04180   0.00000   0.00000   0.00000   0.00000   2.04180
   R19        2.04202   0.00000   0.00000   0.00000   0.00000   2.04203
   R20        2.06131   0.00000   0.00001   0.00001   0.00002   2.06133
   R21        2.06590   0.00000  -0.00002   0.00001  -0.00001   2.06589
   R22        2.05309   0.00000   0.00000   0.00000   0.00000   2.05310
    A1        2.22558  -0.00000   0.00004  -0.00002   0.00002   2.22560
    A2        1.99351   0.00000  -0.00000  -0.00000  -0.00001   1.99350
    A3        2.06410   0.00000  -0.00004   0.00002  -0.00001   2.06409
    A4        1.76224  -0.00001  -0.00011  -0.00006  -0.00017   1.76207
    A5        1.97816   0.00000   0.00000   0.00002   0.00002   1.97818
    A6        2.01771   0.00001   0.00001   0.00003   0.00003   2.01774
    A7        1.87489   0.00001   0.00009  -0.00000   0.00009   1.87498
    A8        1.85689   0.00000  -0.00004   0.00003  -0.00000   1.85689
    A9        1.95336  -0.00001   0.00003  -0.00002   0.00001   1.95337
   A10        2.08896  -0.00000  -0.00001  -0.00000  -0.00001   2.08895
   A11        2.01270   0.00000  -0.00002   0.00001  -0.00002   2.01269
   A12        2.18142  -0.00000   0.00003  -0.00001   0.00002   2.18144
   A13        2.05043   0.00000  -0.00000   0.00000   0.00000   2.05043
   A14        2.15020  -0.00000  -0.00000  -0.00001  -0.00001   2.15019
   A15        2.08251   0.00000   0.00000   0.00000   0.00001   2.08251
   A16        2.09814  -0.00000  -0.00000  -0.00000  -0.00001   2.09814
   A17        2.07667  -0.00000   0.00001  -0.00000   0.00001   2.07668
   A18        2.10837   0.00000  -0.00001   0.00000  -0.00000   2.10837
   A19        2.07939   0.00000   0.00000   0.00001   0.00001   2.07940
   A20        2.10612  -0.00000  -0.00001   0.00000  -0.00001   2.10612
   A21        2.09767  -0.00000   0.00001  -0.00001   0.00000   2.09767
   A22        2.12820  -0.00000   0.00000  -0.00001  -0.00001   2.12819
   A23        2.07901   0.00000  -0.00000   0.00000   0.00000   2.07901
   A24        2.07598   0.00000  -0.00000   0.00001   0.00000   2.07598
   A25        2.08862   0.00000  -0.00000   0.00001   0.00000   2.08862
   A26        2.09203  -0.00000   0.00001  -0.00001   0.00000   2.09203
   A27        2.10253  -0.00000  -0.00000  -0.00000  -0.00001   2.10253
   A28        2.08949  -0.00000   0.00000  -0.00000  -0.00000   2.08949
   A29        2.10247  -0.00000   0.00001  -0.00001  -0.00000   2.10247
   A30        2.09122   0.00000  -0.00001   0.00001   0.00000   2.09122
   A31        1.93480  -0.00001  -0.00009  -0.00002  -0.00011   1.93469
   A32        1.89182  -0.00000   0.00010  -0.00001   0.00009   1.89191
   A33        1.92230   0.00000  -0.00001   0.00001  -0.00001   1.92230
   A34        1.87212   0.00000   0.00001  -0.00001  -0.00000   1.87212
   A35        1.92895   0.00000  -0.00006   0.00002  -0.00004   1.92890
   A36        1.91274   0.00000   0.00006   0.00001   0.00007   1.91281
    D1       -1.79166   0.00000  -0.00015   0.00021   0.00007  -1.79159
    D2        2.49189  -0.00000  -0.00020   0.00024   0.00004   2.49193
    D3        0.20341   0.00000  -0.00025   0.00022  -0.00003   0.20338
    D4        1.34877   0.00000  -0.00019   0.00026   0.00007   1.34884
    D5       -0.65087   0.00000  -0.00024   0.00029   0.00004  -0.65082
    D6       -2.93935   0.00000  -0.00030   0.00027  -0.00003  -2.93938
    D7        3.12540  -0.00000  -0.00011  -0.00001  -0.00012   3.12527
    D8       -0.02724   0.00000  -0.00021   0.00004  -0.00017  -0.02741
    D9       -0.01499  -0.00000  -0.00007  -0.00006  -0.00013  -0.01512
   D10        3.11556  -0.00000  -0.00017  -0.00001  -0.00017   3.11538
   D11        0.28933  -0.00000  -0.00006  -0.00015  -0.00021   0.28912
   D12       -2.83779  -0.00000  -0.00014  -0.00013  -0.00027  -2.83806
   D13       -1.64183   0.00000   0.00001  -0.00008  -0.00007  -1.64191
   D14        1.51423   0.00000  -0.00007  -0.00006  -0.00013   1.51410
   D15        2.60926  -0.00000  -0.00002  -0.00011  -0.00013   2.60913
   D16       -0.51786  -0.00000  -0.00010  -0.00009  -0.00019  -0.51804
   D17       -0.82333  -0.00000  -0.00100  -0.00005  -0.00105  -0.82439
   D18        1.22701  -0.00000  -0.00098  -0.00008  -0.00106   1.22595
   D19       -2.96370  -0.00000  -0.00085  -0.00007  -0.00092  -2.96462
   D20        2.33360  -0.00000  -0.00108  -0.00003  -0.00111   2.33249
   D21       -1.89924  -0.00000  -0.00106  -0.00006  -0.00112  -1.90036
   D22        0.19324  -0.00000  -0.00093  -0.00005  -0.00098   0.19226
   D23        3.12605   0.00000  -0.00008   0.00008  -0.00000   3.12605
   D24       -0.01389   0.00000  -0.00010   0.00009  -0.00001  -0.01390
   D25       -0.00494   0.00000   0.00001   0.00003   0.00005  -0.00489
   D26        3.13830   0.00000  -0.00001   0.00004   0.00003   3.13834
   D27       -3.12664  -0.00000   0.00013  -0.00010   0.00003  -3.12660
   D28        0.01683  -0.00000   0.00007  -0.00004   0.00003   0.01686
   D29        0.00372  -0.00000   0.00003  -0.00005  -0.00002   0.00370
   D30       -3.13600   0.00000  -0.00003   0.00001  -0.00002  -3.13602
   D31        0.00312  -0.00000  -0.00004   0.00000  -0.00004   0.00308
   D32       -3.13911  -0.00000  -0.00001  -0.00002  -0.00003  -3.13914
   D33       -3.14015  -0.00000  -0.00002  -0.00000  -0.00003  -3.14018
   D34        0.00080  -0.00000   0.00002  -0.00003  -0.00001   0.00078
   D35       -0.00010  -0.00000   0.00003  -0.00002   0.00001  -0.00009
   D36        3.14133  -0.00000   0.00003  -0.00002   0.00002   3.14134
   D37       -3.14105   0.00000  -0.00001  -0.00000  -0.00001  -3.14106
   D38        0.00038   0.00000  -0.00001   0.00001   0.00000   0.00038
   D39       -0.00110   0.00000   0.00001   0.00001   0.00002  -0.00108
   D40        3.14065   0.00000   0.00001   0.00001   0.00002   3.14067
   D41        3.14065   0.00000   0.00001   0.00000   0.00001   3.14067
   D42       -0.00078   0.00000   0.00001   0.00000   0.00001  -0.00077
   D43       -0.00076  -0.00000  -0.00004   0.00003  -0.00001  -0.00078
   D44        3.13897  -0.00000   0.00002  -0.00003  -0.00002   3.13895
   D45        3.14067  -0.00000  -0.00004   0.00002  -0.00001   3.14065
   D46       -0.00278  -0.00000   0.00002  -0.00004  -0.00002  -0.00280
         Item               Value     Threshold  Converged?
 Maximum Force            0.000036     0.000450     YES
 RMS     Force            0.000004     0.000300     YES
 Maximum Displacement     0.002104     0.001800     NO 
 RMS     Displacement     0.000431     0.001200     YES
 Predicted change in Energy=-9.302241D-09
 GradGradGradGradGradGradGradGradGradGradGradGradGradGradGradGradGradGrad

                          Input orientation:                          
 ---------------------------------------------------------------------
 Center     Atomic      Atomic             Coordinates (Angstroms)
 Number     Number       Type             X           Y           Z
 ---------------------------------------------------------------------
      1          6           0       -0.611652    1.394447    0.570780
      2          6           0       -0.457596    2.189530    1.795118
      3         35           0       -1.339398    3.860952    1.267864
      4          6           0        1.013645    2.526606    2.125041
      5          8           0        1.854941    2.410698    1.276406
      6          6           0       -1.514746    0.381270    0.336709
      7          6           0       -1.490340   -0.238072   -0.946853
      8          6           0       -2.351644   -1.263801   -1.233786
      9          6           0       -3.251053   -1.688425   -0.256893
     10          6           0       -3.300748   -1.097541    1.010462
     11          6           0       -2.447381   -0.073848    1.313576
     12          6           0        1.268786    2.965344    3.529306
     13          1           0        0.080006    1.660690   -0.223459
     14          1           0       -0.992790    1.821899    2.662801
     15          1           0       -0.782093    0.113805   -1.685488
     16          1           0       -2.337965   -1.740001   -2.203429
     17          1           0       -3.931871   -2.499094   -0.484169
     18          1           0       -4.012013   -1.452702    1.742163
     19          1           0       -2.485351    0.385857    2.290775
     20          1           0        0.543994    3.719791    3.838096
     21          1           0        1.140509    2.103030    4.188923
     22          1           0        2.281001    3.348684    3.623387
 ---------------------------------------------------------------------
                    Distance matrix (angstroms):
                    1          2          3          4          5
     1  C    0.000000
     2  C    1.467956   0.000000
     3  Br   2.664430   1.961943   0.000000
     4  C    2.517758   1.544998   2.837613   0.000000
     5  O    2.759484   2.380295   3.508149   1.200581   0.000000
     6  C    1.377278   2.552318   3.606380   3.767408   4.044304
     7  C    2.395917   3.805026   4.661518   4.832176   4.811421
     8  C    3.653808   4.968619   5.791889   6.080631   6.123590
     9  C    4.141930   5.201220   6.064230   6.451957   6.724953
    10  C    3.692501   4.416338   5.338520   5.743755   6.241762
    11  C    2.465266   3.051886   4.088075   4.404491   4.968332
    12  C    3.841438   2.567039   3.566352   1.493167   2.393067
    13  H    1.086320   2.154841   3.013288   2.671506   2.441823
    14  H    2.168994   1.083725   2.494739   2.193532   3.221545
    15  H    2.599969   4.065532   4.803538   4.854525   4.582846
    16  H    4.527820   5.913153   6.664659   6.940668   6.849672
    17  H    5.224599   6.264898   7.088069   7.518230   7.790563
    18  H    4.587031   5.089454   5.966804   6.421739   7.040166
    19  H    2.736126   2.758751   3.799452   4.105271   4.895616
    20  H    4.173499   2.742013   3.189543   2.139818   3.161418
    21  H    4.082048   2.879535   4.215782   2.110715   3.014602
    22  H    4.637337   3.490862   4.349506   2.127685   2.563136
                    6          7          8          9         10
     6  C    0.000000
     7  C    1.425381   0.000000
     8  C    2.423450   1.369779   0.000000
     9  C    2.766002   2.383207   1.394117   0.000000
    10  C    2.414670   2.801311   2.442353   1.399215   0.000000
    11  C    1.425205   2.460170   2.813220   2.391469   1.366771
    12  C    4.961670   6.157163   7.326679   7.511446   6.613037
    13  H    2.119891   2.567993   3.935268   4.723733   4.534303
    14  H    2.785418   4.185766   5.152806   5.093794   4.071857
    15  H    2.167394   1.082134   2.136662   3.374119   3.883185
    16  H    3.410246   2.133832   1.080353   2.150673   3.415963
    17  H    3.848745   3.359668   2.141260   1.082752   2.143966
    18  H    3.402220   3.881361   3.413031   2.151941   1.080474
    19  H    2.181850   3.444062   3.893812   3.373360   2.122391
    20  H    5.257741   6.534442   7.677557   7.773038   6.781168
    21  H    4.985418   6.227224   7.275744   7.309325   6.330168
    22  H    5.832280   6.926393   8.144234   8.428088   7.599488
                   11         12         13         14         15
    11  C    0.000000
    12  C    5.287348   0.000000
    13  H    3.429109   4.147116   0.000000
    14  H    2.744102   2.678251   3.083404   0.000000
    15  H    3.435518   6.287405   2.296431   4.676494   0.000000
    16  H    3.893246   8.247010   4.618611   6.178739   2.474994
    17  H    3.364137   8.544876   5.785062   6.100213   4.265151
    18  H    2.129084   7.113357   5.504680   4.548218   4.963378
    19  H    1.080595   4.720303   3.811513   2.104366   4.334255
    20  H    5.450983   1.090810   4.577271   2.710169   6.728419
    21  H    5.087177   1.093222   4.559544   2.638001   6.493236
    22  H    6.277463   1.086453   4.742565   3.737848   6.930450
                   16         17         18         19         20
    16  H    0.000000
    17  H    2.464268   0.000000
    18  H    4.295658   2.461283   0.000000
    19  H    4.973818   4.256251   2.451932   0.000000
    20  H    8.637999   8.797151   7.204500   4.763008   0.000000
    21  H    8.229874   8.291343   6.721484   4.438301   1.758643
    22  H    9.010069   9.469335   8.135990   5.768216   1.789138
                   21         22
    21  H    0.000000
    22  H    1.781069   0.000000
 Stoichiometry    C10H10BrO(1+)
 Framework group  C1[X(C10H10BrO)]
 Deg. of freedom    60
 Full point group                 C1      NOp   1
 Largest Abelian subgroup         C1      NOp   1
 Largest concise Abelian subgroup C1      NOp   1
                         Standard orientation:                         
 ---------------------------------------------------------------------
 Center     Atomic      Atomic             Coordinates (Angstroms)
 Number     Number       Type             X           Y           Z
 ---------------------------------------------------------------------
      1          6           0        0.200728    0.471859   -0.518489
      2          6           0       -0.972313    0.336138    0.353549
      3         35           0       -1.650258   -1.418616   -0.203630
      4          6           0       -2.077812    1.374327    0.058498
      5          8           0       -2.065466    1.977354   -0.979577
      6          6           0        1.523522    0.293832   -0.178756
      7          6           0        2.495282    0.461706   -1.207936
      8          6           0        3.828170    0.315808   -0.927904
      9          6           0        4.217893   -0.001640    0.372444
     10          6           0        3.286988   -0.176016    1.402401
     11          6           0        1.953263   -0.032677    1.140306
     12          6           0       -3.090382    1.554043    1.141065
     13          1           0       -0.035026    0.743730   -1.543476
     14          1           0       -0.761447    0.259945    1.413828
     15          1           0        2.162786    0.706573   -2.208185
     16          1           0        4.571104    0.443609   -1.701776
     17          1           0        5.271565   -0.117110    0.593342
     18          1           0        3.626213   -0.422536    2.398182
     19          1           0        1.232103   -0.169215    1.933383
     20          1           0       -3.450185    0.588947    1.500230
     21          1           0       -2.608304    2.055004    1.984731
     22          1           0       -3.918078    2.159523    0.782327
 ---------------------------------------------------------------------
 Rotational constants (GHZ):           1.1836475           0.3693087           0.3320487
 Standard basis: def2TZVP (5D, 7F)
 There are   511 symmetry adapted cartesian basis functions of A   symmetry.
 There are   449 symmetry adapted basis functions of A   symmetry.
   449 basis functions,   755 primitive gaussians,   511 cartesian basis functions
    56 alpha electrons       56 beta electrons
       nuclear repulsion energy       925.2587009303 Hartrees.
 NAtoms=   22 NActive=   22 NUniq=   22 SFac= 1.00D+00 NAtFMM=   60 NAOKFM=F Big=F
 Integral buffers will be    131072 words long.
 Raffenetti 2 integral format.
 Two-electron integral symmetry is turned on.
 Nuclear repulsion after empirical dispersion term =      925.2456791559 Hartrees.
 ------------------------------------------------------------------------------
 Polarizable Continuum Model (PCM)
 =================================
 Model                : C-PCM.
 Atomic radii         : UFF (Universal Force Field).
 Polarization charges : Total charges.
 Charge compensation  : None.
 Solution method      : On-the-fly selection.
 Cavity type          : Scaled VdW (van der Waals Surface) (Alpha=1.100).
 Cavity algorithm     : GePol (No added spheres)
                        Default sphere list used, NSphG=   22.
                        Lebedev-Laikov grids with approx.  5.0 points / Ang**2.
                        Smoothing algorithm: York/Karplus (Gamma=1.0000).
                        Polarization charges: spherical gaussians, with
                                              point-specific exponents (IZeta= 3).
                        Self-potential: point-specific (ISelfS= 7).
                        Self-field    : sphere-specific E.n sum rule (ISelfD= 2).
 1st derivatives      : Analytical E(r).r(x)/FMM algorithm (CHGder, D1EAlg=3).
                        Cavity 1st derivative terms included.
 Solvent              : DiChloroEthane, Eps=  10.125000 Eps(inf)=   2.087447
 ------------------------------------------------------------------------------
 One-electron integrals computed using PRISM.
   1 Symmetry operations used in ECPInt.
 ECPInt:  NShTT=   15753 NPrTT=   51378 LenC2=   14561 LenP2D=   35121.
 LDataN:  DoStor=T MaxTD1= 6 Len=  172
 NBasis=   449 RedAO= T EigKep=  8.74D-06  NBF=   449
 NBsUse=   449 1.00D-06 EigRej= -1.00D+00 NBFU=   449
 Initial guess from the checkpoint file:  "d2.chk"
 B after Tr=     0.000000   -0.000000   -0.000000
         Rot=    1.000000    0.000064    0.000006   -0.000023 Ang=   0.01 deg.
 Requested convergence on RMS density matrix=1.00D-08 within 128 cycles.
 Requested convergence on MAX density matrix=1.00D-06.
 Requested convergence on             energy=1.00D-06.
 No special actions if energy rises.
 Inv3:  Mode=1 IEnd=    11001675.
 Iteration    1 A*A^-1 deviation from unit magnitude is 6.00D-15 for   1908.
 Iteration    1 A*A^-1 deviation from orthogonality  is 1.91D-15 for   1905   1130.
 Iteration    1 A^-1*A deviation from unit magnitude is 5.77D-15 for   1908.
 Iteration    1 A^-1*A deviation from orthogonality  is 2.38D-15 for   1905   1130.
 Error on total polarization charges =  0.01060
 SCF Done:  E(RwB97XD) =  -3036.30957204     A.U. after    6 cycles
            NFock=  6  Conv=0.68D-08     -V/T= 2.0019
   1 Symmetry operations used in ECPInt.
 ECPInt:  NShTT=   15753 NPrTT=   51378 LenC2=   14561 LenP2D=   35121.
 LDataN:  DoStor=T MaxTD1= 7 Len=  274
 D1PCM: C-PCM CHGder 1st derivatives, ID1Alg=3 FixD1E=F DoIter=F DoCFld=F I1PDM=0.
 Calling FoFJK, ICntrl=      2127 FMM=F ISym2X=0 I1Cent= 0 IOpClX= 0 NMat=1 NMatS=1 NMatT=0.
 ***** Axes restored to original set *****
 -------------------------------------------------------------------
 Center     Atomic                   Forces (Hartrees/Bohr)
 Number     Number              X              Y              Z
 -------------------------------------------------------------------
      1        6           0.000001159    0.000003067   -0.000008599
      2        6          -0.000000431    0.000001320   -0.000005777
      3       35           0.000000685   -0.000002835   -0.000002071
      4        6          -0.000034510    0.000008130    0.000031430
      5        8           0.000022366   -0.000001584   -0.000029585
      6        6          -0.000000800   -0.000002325    0.000006236
      7        6          -0.000006909   -0.000004110   -0.000002971
      8        6          -0.000000113    0.000002730    0.000008739
      9        6          -0.000003179   -0.000003456    0.000003433
     10        6           0.000005926    0.000004765    0.000001512
     11        6          -0.000005116   -0.000002498    0.000004090
     12        6           0.000012415    0.000001001   -0.000013985
     13        1          -0.000000203   -0.000000975    0.000000250
     14        1           0.000009158   -0.000001466    0.000003551
     15        1          -0.000003001   -0.000002037    0.000001852
     16        1          -0.000005426   -0.000002766    0.000002598
     17        1          -0.000001147   -0.000000339    0.000006366
     18        1           0.000000998   -0.000001376    0.000006234
     19        1           0.000002895    0.000000589    0.000001126
     20        1           0.000001074    0.000001963   -0.000004986
     21        1           0.000000954    0.000001223   -0.000003073
     22        1           0.000003205    0.000000980   -0.000006371
 -------------------------------------------------------------------
 Cartesian Forces:  Max     0.000034510 RMS     0.000008527

 GradGradGradGradGradGradGradGradGradGradGradGradGradGradGradGradGradGrad
 Berny optimization.
 Using GEDIIS/GDIIS optimizer.
 FormGI is forming the generalized inverse of G from B-inverse, IUseBI=4.
 Internal  Forces:  Max     0.000033158 RMS     0.000003938
 Search for a local minimum.
 Step number  12 out of a maximum of  114
 All quantities printed in internal units (Hartrees-Bohrs-Radians)
 Mixed Optimization -- En-DIIS/RFO-DIIS
 Swapping is turned off.
 Update second derivatives using D2CorX and points    1    2    3    4    5
                                                      6    7    8    9   10
                                                     11   12
 DE= -4.16D-08 DEPred=-9.30D-09 R= 4.47D+00
 Trust test= 4.47D+00 RLast= 2.63D-03 DXMaxT set to 2.62D-01
 ITU=  0  0  0  0  0  1  1  1 -1  1  1  0
     Eigenvalues ---    0.00132   0.00256   0.00744   0.01710   0.01836
     Eigenvalues ---    0.01979   0.02029   0.02063   0.02170   0.02185
     Eigenvalues ---    0.02218   0.02269   0.02289   0.02316   0.03080
     Eigenvalues ---    0.03229   0.07124   0.07195   0.07703   0.11951
     Eigenvalues ---    0.15454   0.15776   0.15998   0.16000   0.16000
     Eigenvalues ---    0.16001   0.16015   0.16058   0.16333   0.16652
     Eigenvalues ---    0.17658   0.20996   0.22001   0.22054   0.22256
     Eigenvalues ---    0.23597   0.24953   0.25309   0.25714   0.28444
     Eigenvalues ---    0.33832   0.33891   0.34244   0.34813   0.34879
     Eigenvalues ---    0.35033   0.35238   0.35355   0.35427   0.35460
     Eigenvalues ---    0.35865   0.36677   0.38548   0.40097   0.44121
     Eigenvalues ---    0.45460   0.47721   0.47982   0.55226   1.02672
 En-DIIS/RFO-DIIS/Sim-DIIS IScMMF=       -3 using points:    12   11   10    9    8    7    6    5    4    3
 RFO step:  Lambda=-3.22309965D-09.
 DIIS inversion failure, remove point  10.
 DIIS inversion failure, remove point   9.
 DIIS inversion failure, remove point   8.
 DIIS inversion failure, remove point   7.
 DIIS inversion failure, remove point   6.
 DIIS inversion failure, remove point   5.
 DIIS inversion failure, remove point   4.
 DIIS inversion failure, remove point   3.
 RFO-DIIS uses    2 points instead of   10
 DidBck=F Rises=F RFO-DIIS coefs:    1.52887   -0.52887    0.00000    0.00000    0.00000
                  RFO-DIIS coefs:    0.00000    0.00000    0.00000    0.00000    0.00000
 Iteration  1 RMS(Cart)=  0.00021813 RMS(Int)=  0.00000003
 Iteration  2 RMS(Cart)=  0.00000003 RMS(Int)=  0.00000000
 Variable       Old X    -DE/DX   Delta X   Delta X   Delta X     New X
                                 (Linear)    (Quad)   (Total)
    R1        2.77404  -0.00000   0.00000   0.00000   0.00000   2.77404
    R2        2.60268   0.00000   0.00001   0.00000   0.00002   2.60270
    R3        2.05285  -0.00000   0.00000   0.00000   0.00000   2.05285
    R4        3.70754  -0.00000   0.00002  -0.00001   0.00001   3.70755
    R5        2.91962  -0.00001   0.00000  -0.00003  -0.00002   2.91960
    R6        2.04794   0.00000   0.00000   0.00000   0.00001   2.04795
    R7        2.26877   0.00003   0.00000   0.00003   0.00003   2.26880
    R8        2.82168  -0.00001   0.00000  -0.00002  -0.00001   2.82167
    R9        2.69358   0.00000  -0.00001   0.00000  -0.00001   2.69357
   R10        2.69325  -0.00000  -0.00000   0.00000  -0.00000   2.69325
   R11        2.58851  -0.00000   0.00001  -0.00000   0.00000   2.58851
   R12        2.04494  -0.00000   0.00000   0.00000   0.00000   2.04494
   R13        2.63450  -0.00000   0.00000  -0.00000   0.00000   2.63450
   R14        2.04157   0.00000   0.00000   0.00000   0.00001   2.04158
   R15        2.64413  -0.00000   0.00000   0.00000   0.00000   2.64413
   R16        2.04610  -0.00000   0.00000  -0.00000   0.00000   2.04611
   R17        2.58282  -0.00000   0.00001  -0.00000   0.00000   2.58283
   R18        2.04180   0.00000   0.00000   0.00000   0.00001   2.04181
   R19        2.04203  -0.00000   0.00000  -0.00000   0.00000   2.04203
   R20        2.06133   0.00000   0.00001   0.00000   0.00001   2.06134
   R21        2.06589   0.00000  -0.00001   0.00000  -0.00000   2.06589
   R22        2.05310  -0.00000   0.00000  -0.00000   0.00000   2.05310
    A1        2.22560  -0.00001   0.00001  -0.00002  -0.00001   2.22559
    A2        1.99350   0.00000  -0.00000  -0.00000  -0.00001   1.99349
    A3        2.06409   0.00000  -0.00001   0.00002   0.00001   2.06410
    A4        1.76207  -0.00000  -0.00009  -0.00001  -0.00010   1.76197
    A5        1.97818   0.00000   0.00001   0.00001   0.00002   1.97820
    A6        2.01774   0.00000   0.00002   0.00002   0.00003   2.01777
    A7        1.87498   0.00000   0.00005  -0.00001   0.00004   1.87503
    A8        1.85689   0.00000  -0.00000   0.00003   0.00003   1.85692
    A9        1.95337  -0.00001   0.00001  -0.00003  -0.00003   1.95334
   A10        2.08895  -0.00000  -0.00000  -0.00001  -0.00001   2.08894
   A11        2.01269   0.00001  -0.00001   0.00002   0.00001   2.01270
   A12        2.18144  -0.00000   0.00001  -0.00001   0.00000   2.18145
   A13        2.05043  -0.00000   0.00000  -0.00000   0.00000   2.05043
   A14        2.15019   0.00000  -0.00001  -0.00000  -0.00001   2.15018
   A15        2.08251  -0.00000   0.00000   0.00000   0.00001   2.08252
   A16        2.09814  -0.00000  -0.00000  -0.00000  -0.00001   2.09813
   A17        2.07668  -0.00000   0.00001  -0.00000   0.00000   2.07668
   A18        2.10837   0.00000  -0.00000   0.00001   0.00000   2.10837
   A19        2.07940   0.00000   0.00000   0.00000   0.00001   2.07941
   A20        2.10612   0.00000  -0.00000   0.00000  -0.00000   2.10611
   A21        2.09767  -0.00000   0.00000  -0.00000  -0.00000   2.09767
   A22        2.12819  -0.00000  -0.00000  -0.00000  -0.00001   2.12818
   A23        2.07901   0.00000   0.00000   0.00000   0.00000   2.07901
   A24        2.07598   0.00000   0.00000   0.00000   0.00000   2.07599
   A25        2.08862   0.00000   0.00000   0.00000   0.00001   2.08863
   A26        2.09203  -0.00000   0.00000  -0.00000  -0.00000   2.09203
   A27        2.10253  -0.00000  -0.00000   0.00000  -0.00000   2.10253
   A28        2.08949  -0.00000  -0.00000  -0.00000  -0.00000   2.08949
   A29        2.10247  -0.00000  -0.00000  -0.00000  -0.00000   2.10247
   A30        2.09122   0.00000   0.00000   0.00001   0.00001   2.09123
   A31        1.93469  -0.00000  -0.00006  -0.00000  -0.00006   1.93463
   A32        1.89191  -0.00000   0.00005  -0.00001   0.00004   1.89195
   A33        1.92230   0.00000  -0.00000   0.00001   0.00001   1.92231
   A34        1.87212  -0.00000  -0.00000  -0.00001  -0.00001   1.87211
   A35        1.92890   0.00000  -0.00002   0.00001  -0.00001   1.92889
   A36        1.91281   0.00000   0.00004   0.00000   0.00004   1.91285
    D1       -1.79159   0.00000   0.00003   0.00022   0.00025  -1.79134
    D2        2.49193   0.00000   0.00002   0.00023   0.00025   2.49218
    D3        0.20338   0.00000  -0.00002   0.00025   0.00024   0.20361
    D4        1.34884   0.00000   0.00004   0.00019   0.00023   1.34907
    D5       -0.65082   0.00000   0.00002   0.00021   0.00023  -0.65059
    D6       -2.93938   0.00000  -0.00001   0.00023   0.00022  -2.93916
    D7        3.12527   0.00000  -0.00007  -0.00002  -0.00008   3.12519
    D8       -0.02741   0.00000  -0.00009   0.00006  -0.00003  -0.02744
    D9       -0.01512   0.00000  -0.00007   0.00001  -0.00006  -0.01518
   D10        3.11538   0.00000  -0.00009   0.00008  -0.00001   3.11537
   D11        0.28912  -0.00000  -0.00011   0.00008  -0.00003   0.28909
   D12       -2.83806  -0.00000  -0.00014   0.00009  -0.00005  -2.83811
   D13       -1.64191   0.00000  -0.00004   0.00010   0.00006  -1.64185
   D14        1.51410   0.00000  -0.00007   0.00011   0.00004   1.51414
   D15        2.60913  -0.00000  -0.00007   0.00008   0.00001   2.60914
   D16       -0.51804   0.00000  -0.00010   0.00009  -0.00001  -0.51806
   D17       -0.82439  -0.00000  -0.00056  -0.00000  -0.00056  -0.82494
   D18        1.22595  -0.00000  -0.00056  -0.00003  -0.00059   1.22536
   D19       -2.96462  -0.00000  -0.00049  -0.00002  -0.00051  -2.96513
   D20        2.33249   0.00000  -0.00059   0.00000  -0.00058   2.33191
   D21       -1.90036  -0.00000  -0.00059  -0.00002  -0.00061  -1.90097
   D22        0.19226  -0.00000  -0.00052  -0.00002  -0.00053   0.19172
   D23        3.12605   0.00000  -0.00000   0.00007   0.00007   3.12612
   D24       -0.01390   0.00000  -0.00001   0.00008   0.00007  -0.01383
   D25       -0.00489  -0.00000   0.00002  -0.00001   0.00002  -0.00488
   D26        3.13834   0.00000   0.00002   0.00000   0.00002   3.13836
   D27       -3.12660  -0.00000   0.00002  -0.00007  -0.00005  -3.12665
   D28        0.01686  -0.00000   0.00002  -0.00007  -0.00006   0.01681
   D29        0.00370   0.00000  -0.00001   0.00001   0.00000   0.00370
   D30       -3.13602   0.00000  -0.00001   0.00000  -0.00000  -3.13602
   D31        0.00308   0.00000  -0.00002   0.00001  -0.00002   0.00307
   D32       -3.13914  -0.00000  -0.00001  -0.00000  -0.00002  -3.13916
   D33       -3.14018  -0.00000  -0.00001  -0.00001  -0.00002  -3.14020
   D34        0.00078  -0.00000  -0.00001  -0.00002  -0.00002   0.00076
   D35       -0.00009  -0.00000   0.00000  -0.00001  -0.00000  -0.00009
   D36        3.14134  -0.00000   0.00001  -0.00001  -0.00000   3.14134
   D37       -3.14106   0.00000  -0.00000   0.00000  -0.00000  -3.14106
   D38        0.00038   0.00000   0.00000  -0.00000  -0.00000   0.00038
   D39       -0.00108   0.00000   0.00001   0.00001   0.00002  -0.00106
   D40        3.14067   0.00000   0.00001   0.00001   0.00002   3.14068
   D41        3.14067   0.00000   0.00001   0.00002   0.00002   3.14069
   D42       -0.00077   0.00000   0.00001   0.00001   0.00002  -0.00075
   D43       -0.00078  -0.00000  -0.00001  -0.00001  -0.00002  -0.00080
   D44        3.13895  -0.00000  -0.00001  -0.00001  -0.00002   3.13894
   D45        3.14065  -0.00000  -0.00001  -0.00001  -0.00001   3.14064
   D46       -0.00280  -0.00000  -0.00001  -0.00000  -0.00001  -0.00281
         Item               Value     Threshold  Converged?
 Maximum Force            0.000033     0.000450     YES
 RMS     Force            0.000004     0.000300     YES
 Maximum Displacement     0.000851     0.001800     YES
 RMS     Displacement     0.000218     0.001200     YES
 Predicted change in Energy=-4.865920D-09
 Optimization completed.
    -- Stationary point found.
                           ----------------------------
                           !   Optimized Parameters   !
                           ! (Angstroms and Degrees)  !
 --------------------------                            --------------------------
 ! Name  Definition              Value          Derivative Info.                !
 --------------------------------------------------------------------------------
 ! R1    R(1,2)                  1.468          -DE/DX =    0.0                 !
 ! R2    R(1,6)                  1.3773         -DE/DX =    0.0                 !
 ! R3    R(1,13)                 1.0863         -DE/DX =    0.0                 !
 ! R4    R(2,3)                  1.9619         -DE/DX =    0.0                 !
 ! R5    R(2,4)                  1.545          -DE/DX =    0.0                 !
 ! R6    R(2,14)                 1.0837         -DE/DX =    0.0                 !
 ! R7    R(4,5)                  1.2006         -DE/DX =    0.0                 !
 ! R8    R(4,12)                 1.4932         -DE/DX =    0.0                 !
 ! R9    R(6,7)                  1.4254         -DE/DX =    0.0                 !
 ! R10   R(6,11)                 1.4252         -DE/DX =    0.0                 !
 ! R11   R(7,8)                  1.3698         -DE/DX =    0.0                 !
 ! R12   R(7,15)                 1.0821         -DE/DX =    0.0                 !
 ! R13   R(8,9)                  1.3941         -DE/DX =    0.0                 !
 ! R14   R(8,16)                 1.0804         -DE/DX =    0.0                 !
 ! R15   R(9,10)                 1.3992         -DE/DX =    0.0                 !
 ! R16   R(9,17)                 1.0828         -DE/DX =    0.0                 !
 ! R17   R(10,11)                1.3668         -DE/DX =    0.0                 !
 ! R18   R(10,18)                1.0805         -DE/DX =    0.0                 !
 ! R19   R(11,19)                1.0806         -DE/DX =    0.0                 !
 ! R20   R(12,20)                1.0908         -DE/DX =    0.0                 !
 ! R21   R(12,21)                1.0932         -DE/DX =    0.0                 !
 ! R22   R(12,22)                1.0865         -DE/DX =    0.0                 !
 ! A1    A(2,1,6)              127.5173         -DE/DX =    0.0                 !
 ! A2    A(2,1,13)             114.2191         -DE/DX =    0.0                 !
 ! A3    A(6,1,13)             118.2635         -DE/DX =    0.0                 !
 ! A4    A(1,2,3)              100.9594         -DE/DX =    0.0                 !
 ! A5    A(1,2,4)              113.3413         -DE/DX =    0.0                 !
 ! A6    A(1,2,14)             115.608          -DE/DX =    0.0                 !
 ! A7    A(3,2,4)              107.4287         -DE/DX =    0.0                 !
 ! A8    A(3,2,14)             106.3917         -DE/DX =    0.0                 !
 ! A9    A(4,2,14)             111.9199         -DE/DX =    0.0                 !
 ! A10   A(2,4,5)              119.6883         -DE/DX =    0.0                 !
 ! A11   A(2,4,12)             115.3185         -DE/DX =    0.0                 !
 ! A12   A(5,4,12)             124.9876         -DE/DX =    0.0                 !
 ! A13   A(1,6,7)              117.4812         -DE/DX =    0.0                 !
 ! A14   A(1,6,11)             123.1966         -DE/DX =    0.0                 !
 ! A15   A(7,6,11)             119.3193         -DE/DX =    0.0                 !
 ! A16   A(6,7,8)              120.2145         -DE/DX =    0.0                 !
 ! A17   A(6,7,15)             118.9847         -DE/DX =    0.0                 !
 ! A18   A(8,7,15)             120.8007         -DE/DX =    0.0                 !
 ! A19   A(7,8,9)              119.1409         -DE/DX =    0.0                 !
 ! A20   A(7,8,16)             120.6715         -DE/DX =    0.0                 !
 ! A21   A(9,8,16)             120.1876         -DE/DX =    0.0                 !
 ! A22   A(8,9,10)             121.9365         -DE/DX =    0.0                 !
 ! A23   A(8,9,17)             119.1184         -DE/DX =    0.0                 !
 ! A24   A(10,9,17)            118.9451         -DE/DX =    0.0                 !
 ! A25   A(9,10,11)            119.6694         -DE/DX =    0.0                 !
 ! A26   A(9,10,18)            119.8647         -DE/DX =    0.0                 !
 ! A27   A(11,10,18)           120.466          -DE/DX =    0.0                 !
 ! A28   A(6,11,10)            119.719          -DE/DX =    0.0                 !
 ! A29   A(6,11,19)            120.4629         -DE/DX =    0.0                 !
 ! A30   A(10,11,19)           119.818          -DE/DX =    0.0                 !
 ! A31   A(4,12,20)            110.8496         -DE/DX =    0.0                 !
 ! A32   A(4,12,21)            108.3987         -DE/DX =    0.0                 !
 ! A33   A(4,12,22)            110.1396         -DE/DX =    0.0                 !
 ! A34   A(20,12,21)           107.2645         -DE/DX =    0.0                 !
 ! A35   A(20,12,22)           110.5181         -DE/DX =    0.0                 !
 ! A36   A(21,12,22)           109.5959         -DE/DX =    0.0                 !
 ! D1    D(6,1,2,3)           -102.6507         -DE/DX =    0.0                 !
 ! D2    D(6,1,2,4)            142.7771         -DE/DX =    0.0                 !
 ! D3    D(6,1,2,14)            11.6526         -DE/DX =    0.0                 !
 ! D4    D(13,1,2,3)            77.2828         -DE/DX =    0.0                 !
 ! D5    D(13,1,2,4)           -37.2893         -DE/DX =    0.0                 !
 ! D6    D(13,1,2,14)         -168.4139         -DE/DX =    0.0                 !
 ! D7    D(2,1,6,7)            179.0649         -DE/DX =    0.0                 !
 ! D8    D(2,1,6,11)            -1.5707         -DE/DX =    0.0                 !
 ! D9    D(13,1,6,7)            -0.8663         -DE/DX =    0.0                 !
 ! D10   D(13,1,6,11)          178.4982         -DE/DX =    0.0                 !
 ! D11   D(1,2,4,5)             16.5653         -DE/DX =    0.0                 !
 ! D12   D(1,2,4,12)          -162.6086         -DE/DX =    0.0                 !
 ! D13   D(3,2,4,5)            -94.0744         -DE/DX =    0.0                 !
 ! D14   D(3,2,4,12)            86.7516         -DE/DX =    0.0                 !
 ! D15   D(14,2,4,5)           149.4922         -DE/DX =    0.0                 !
 ! D16   D(14,2,4,12)          -29.6818         -DE/DX =    0.0                 !
 ! D17   D(2,4,12,20)          -47.2338         -DE/DX =    0.0                 !
 ! D18   D(2,4,12,21)           70.2418         -DE/DX =    0.0                 !
 ! D19   D(2,4,12,22)         -169.8603         -DE/DX =    0.0                 !
 ! D20   D(5,4,12,20)          133.642          -DE/DX =    0.0                 !
 ! D21   D(5,4,12,21)         -108.8823         -DE/DX =    0.0                 !
 ! D22   D(5,4,12,22)           11.0155         -DE/DX =    0.0                 !
 ! D23   D(1,6,7,8)            179.1096         -DE/DX =    0.0                 !
 ! D24   D(1,6,7,15)            -0.7965         -DE/DX =    0.0                 !
 ! D25   D(11,6,7,8)            -0.2804         -DE/DX =    0.0                 !
 ! D26   D(11,6,7,15)          179.8135         -DE/DX =    0.0                 !
 ! D27   D(1,6,11,10)         -179.1412         -DE/DX =    0.0                 !
 ! D28   D(1,6,11,19)            0.9662         -DE/DX =    0.0                 !
 ! D29   D(7,6,11,10)            0.2122         -DE/DX =    0.0                 !
 ! D30   D(7,6,11,19)         -179.6805         -DE/DX =    0.0                 !
 ! D31   D(6,7,8,9)              0.1766         -DE/DX =    0.0                 !
 ! D32   D(6,7,8,16)          -179.8594         -DE/DX =    0.0                 !
 ! D33   D(15,7,8,9)          -179.919          -DE/DX =    0.0                 !
 ! D34   D(15,7,8,16)            0.045          -DE/DX =    0.0                 !
 ! D35   D(7,8,9,10)            -0.0051         -DE/DX =    0.0                 !
 ! D36   D(7,8,9,17)           179.9858         -DE/DX =    0.0                 !
 ! D37   D(16,8,9,10)         -179.9693         -DE/DX =    0.0                 !
 ! D38   D(16,8,9,17)            0.0216         -DE/DX =    0.0                 !
 ! D39   D(8,9,10,11)           -0.0621         -DE/DX =    0.0                 !
 ! D40   D(8,9,10,18)          179.947          -DE/DX =    0.0                 !
 ! D41   D(17,9,10,11)         179.9469         -DE/DX =    0.0                 !
 ! D42   D(17,9,10,18)          -0.0439         -DE/DX =    0.0                 !
 ! D43   D(9,10,11,6)           -0.0445         -DE/DX =    0.0                 !
 ! D44   D(9,10,11,19)         179.8488         -DE/DX =    0.0                 !
 ! D45   D(18,10,11,6)         179.9463         -DE/DX =    0.0                 !
 ! D46   D(18,10,11,19)         -0.1604         -DE/DX =    0.0                 !
 --------------------------------------------------------------------------------
 GradGradGradGradGradGradGradGradGradGradGradGradGradGradGradGradGradGrad

                          Input orientation:                          
 ---------------------------------------------------------------------
 Center     Atomic      Atomic             Coordinates (Angstroms)
 Number     Number       Type             X           Y           Z
 ---------------------------------------------------------------------
      1          6           0       -0.611652    1.394447    0.570780
      2          6           0       -0.457596    2.189530    1.795118
      3         35           0       -1.339398    3.860952    1.267864
      4          6           0        1.013645    2.526606    2.125041
      5          8           0        1.854941    2.410698    1.276406
      6          6           0       -1.514746    0.381270    0.336709
      7          6           0       -1.490340   -0.238072   -0.946853
      8          6           0       -2.351644   -1.263801   -1.233786
      9          6           0       -3.251053   -1.688425   -0.256893
     10          6           0       -3.300748   -1.097541    1.010462
     11          6           0       -2.447381   -0.073848    1.313576
     12          6           0        1.268786    2.965344    3.529306
     13          1           0        0.080006    1.660690   -0.223459
     14          1           0       -0.992790    1.821899    2.662801
     15          1           0       -0.782093    0.113805   -1.685488
     16          1           0       -2.337965   -1.740001   -2.203429
     17          1           0       -3.931871   -2.499094   -0.484169
     18          1           0       -4.012013   -1.452702    1.742163
     19          1           0       -2.485351    0.385857    2.290775
     20          1           0        0.543994    3.719791    3.838096
     21          1           0        1.140509    2.103030    4.188923
     22          1           0        2.281001    3.348684    3.623387
 ---------------------------------------------------------------------
                    Distance matrix (angstroms):
                    1          2          3          4          5
     1  C    0.000000
     2  C    1.467956   0.000000
     3  Br   2.664430   1.961943   0.000000
     4  C    2.517758   1.544998   2.837613   0.000000
     5  O    2.759484   2.380295   3.508149   1.200581   0.000000
     6  C    1.377278   2.552318   3.606380   3.767408   4.044304
     7  C    2.395917   3.805026   4.661518   4.832176   4.811421
     8  C    3.653808   4.968619   5.791889   6.080631   6.123590
     9  C    4.141930   5.201220   6.064230   6.451957   6.724953
    10  C    3.692501   4.416338   5.338520   5.743755   6.241762
    11  C    2.465266   3.051886   4.088075   4.404491   4.968332
    12  C    3.841438   2.567039   3.566352   1.493167   2.393067
    13  H    1.086320   2.154841   3.013288   2.671506   2.441823
    14  H    2.168994   1.083725   2.494739   2.193532   3.221545
    15  H    2.599969   4.065532   4.803538   4.854525   4.582846
    16  H    4.527820   5.913153   6.664659   6.940668   6.849672
    17  H    5.224599   6.264898   7.088069   7.518230   7.790563
    18  H    4.587031   5.089454   5.966804   6.421739   7.040166
    19  H    2.736126   2.758751   3.799452   4.105271   4.895616
    20  H    4.173499   2.742013   3.189543   2.139818   3.161418
    21  H    4.082048   2.879535   4.215782   2.110715   3.014602
    22  H    4.637337   3.490862   4.349506   2.127685   2.563136
                    6          7          8          9         10
     6  C    0.000000
     7  C    1.425381   0.000000
     8  C    2.423450   1.369779   0.000000
     9  C    2.766002   2.383207   1.394117   0.000000
    10  C    2.414670   2.801311   2.442353   1.399215   0.000000
    11  C    1.425205   2.460170   2.813220   2.391469   1.366771
    12  C    4.961670   6.157163   7.326679   7.511446   6.613037
    13  H    2.119891   2.567993   3.935268   4.723733   4.534303
    14  H    2.785418   4.185766   5.152806   5.093794   4.071857
    15  H    2.167394   1.082134   2.136662   3.374119   3.883185
    16  H    3.410246   2.133832   1.080353   2.150673   3.415963
    17  H    3.848745   3.359668   2.141260   1.082752   2.143966
    18  H    3.402220   3.881361   3.413031   2.151941   1.080474
    19  H    2.181850   3.444062   3.893812   3.373360   2.122391
    20  H    5.257741   6.534442   7.677557   7.773038   6.781168
    21  H    4.985418   6.227224   7.275744   7.309325   6.330168
    22  H    5.832280   6.926393   8.144234   8.428088   7.599488
                   11         12         13         14         15
    11  C    0.000000
    12  C    5.287348   0.000000
    13  H    3.429109   4.147116   0.000000
    14  H    2.744102   2.678251   3.083404   0.000000
    15  H    3.435518   6.287405   2.296431   4.676494   0.000000
    16  H    3.893246   8.247010   4.618611   6.178739   2.474994
    17  H    3.364137   8.544876   5.785062   6.100213   4.265151
    18  H    2.129084   7.113357   5.504680   4.548218   4.963378
    19  H    1.080595   4.720303   3.811513   2.104366   4.334255
    20  H    5.450983   1.090810   4.577271   2.710169   6.728419
    21  H    5.087177   1.093222   4.559544   2.638001   6.493236
    22  H    6.277463   1.086453   4.742565   3.737848   6.930450
                   16         17         18         19         20
    16  H    0.000000
    17  H    2.464268   0.000000
    18  H    4.295658   2.461283   0.000000
    19  H    4.973818   4.256251   2.451932   0.000000
    20  H    8.637999   8.797151   7.204500   4.763008   0.000000
    21  H    8.229874   8.291343   6.721484   4.438301   1.758643
    22  H    9.010069   9.469335   8.135990   5.768216   1.789138
                   21         22
    21  H    0.000000
    22  H    1.781069   0.000000
 Stoichiometry    C10H10BrO(1+)
 Framework group  C1[X(C10H10BrO)]
 Deg. of freedom    60
 Full point group                 C1      NOp   1
 Largest Abelian subgroup         C1      NOp   1
 Largest concise Abelian subgroup C1      NOp   1
                         Standard orientation:                         
 ---------------------------------------------------------------------
 Center     Atomic      Atomic             Coordinates (Angstroms)
 Number     Number       Type             X           Y           Z
 ---------------------------------------------------------------------
      1          6           0        0.200728    0.471859   -0.518489
      2          6           0       -0.972313    0.336138    0.353549
      3         35           0       -1.650258   -1.418616   -0.203630
      4          6           0       -2.077812    1.374327    0.058498
      5          8           0       -2.065466    1.977354   -0.979577
      6          6           0        1.523522    0.293832   -0.178756
      7          6           0        2.495282    0.461706   -1.207936
      8          6           0        3.828170    0.315808   -0.927904
      9          6           0        4.217893   -0.001640    0.372444
     10          6           0        3.286988   -0.176016    1.402401
     11          6           0        1.953263   -0.032677    1.140306
     12          6           0       -3.090382    1.554043    1.141065
     13          1           0       -0.035026    0.743730   -1.543476
     14          1           0       -0.761447    0.259945    1.413828
     15          1           0        2.162786    0.706573   -2.208185
     16          1           0        4.571104    0.443609   -1.701776
     17          1           0        5.271565   -0.117110    0.593342
     18          1           0        3.626213   -0.422536    2.398182
     19          1           0        1.232103   -0.169215    1.933383
     20          1           0       -3.450185    0.588947    1.500230
     21          1           0       -2.608304    2.055004    1.984731
     22          1           0       -3.918078    2.159523    0.782327
 ---------------------------------------------------------------------
 Rotational constants (GHZ):           1.1836475           0.3693087           0.3320487

 **********************************************************************

            Population analysis using the SCF Density.

 **********************************************************************

 Orbital symmetries:
       Occupied  (A) (A) (A) (A) (A) (A) (A) (A) (A) (A) (A) (A)
                 (A) (A) (A) (A) (A) (A) (A) (A) (A) (A) (A) (A)
                 (A) (A) (A) (A) (A) (A) (A) (A) (A) (A) (A) (A)
                 (A) (A) (A) (A) (A) (A) (A) (A) (A) (A) (A) (A)
                 (A) (A) (A) (A) (A) (A) (A) (A)
       Virtual   (A) (A) (A) (A) (A) (A) (A) (A) (A) (A) (A) (A)
                 (A) (A) (A) (A) (A) (A) (A) (A) (A) (A) (A) (A)
                 (A) (A) (A) (A) (A) (A) (A) (A) (A) (A) (A) (A)
                 (A) (A) (A) (A) (A) (A) (A) (A) (A) (A) (A) (A)
                 (A) (A) (A) (A) (A) (A) (A) (A) (A) (A) (A) (A)
                 (A) (A) (A) (A) (A) (A) (A) (A) (A) (A) (A) (A)
                 (A) (A) (A) (A) (A) (A) (A) (A) (A) (A) (A) (A)
                 (A) (A) (A) (A) (A) (A) (A) (A) (A) (A) (A) (A)
                 (A) (A) (A) (A) (A) (A) (A) (A) (A) (A) (A) (A)
                 (A) (A) (A) (A) (A) (A) (A) (A) (A) (A) (A) (A)
                 (A) (A) (A) (A) (A) (A) (A) (A) (A) (A) (A) (A)
                 (A) (A) (A) (A) (A) (A) (A) (A) (A) (A) (A) (A)
                 (A) (A) (A) (A) (A) (A) (A) (A) (A) (A) (A) (A)
                 (A) (A) (A) (A) (A) (A) (A) (A) (A) (A) (A) (A)
                 (A) (A) (A) (A) (A) (A) (A) (A) (A) (A) (A) (A)
                 (A) (A) (A) (A) (A) (A) (A) (A) (A) (A) (A) (A)
                 (A) (A) (A) (A) (A) (A) (A) (A) (A) (A) (A) (A)
                 (A) (A) (A) (A) (A) (A) (A) (A) (A) (A) (A) (A)
                 (A) (A) (A) (A) (A) (A) (A) (A) (A) (A) (A) (A)
                 (A) (A) (A) (A) (A) (A) (A) (A) (A) (A) (A) (A)
                 (A) (A) (A) (A) (A) (A) (A) (A) (A) (A) (A) (A)
                 (A) (A) (A) (A) (A) (A) (A) (A) (A) (A) (A) (A)
                 (A) (A) (A) (A) (A) (A) (A) (A) (A) (A) (A) (A)
                 (A) (A) (A) (A) (A) (A) (A) (A) (A) (A) (A) (A)
                 (A) (A) (A) (A) (A) (A) (A) (A) (A) (A) (A) (A)
                 (A) (A) (A) (A) (A) (A) (A) (A) (A) (A) (A) (A)
                 (A) (A) (A) (A) (A) (A) (A) (A) (A) (A) (A) (A)
                 (A) (A) (A) (A) (A) (A) (A) (A) (A) (A) (A) (A)
                 (A) (A) (A) (A) (A) (A) (A) (A) (A) (A) (A) (A)
                 (A) (A) (A) (A) (A) (A) (A) (A) (A) (A) (A) (A)
                 (A) (A) (A) (A) (A) (A) (A) (A) (A) (A) (A) (A)
                 (A) (A) (A) (A) (A) (A) (A) (A) (A) (A) (A) (A)
                 (A) (A) (A) (A) (A) (A) (A) (A) (A)
 The electronic state is 1-A.
 Alpha  occ. eigenvalues -- -483.18117 -62.72905 -56.52070 -56.51661 -56.51631
 Alpha  occ. eigenvalues --  -19.28903 -10.43085 -10.42253 -10.40753 -10.37143
 Alpha  occ. eigenvalues --  -10.36981 -10.36838 -10.36731 -10.34417 -10.34286
 Alpha  occ. eigenvalues --  -10.31271  -8.86964  -6.69248  -6.67939  -6.67845
 Alpha  occ. eigenvalues --   -2.79598  -2.79251  -2.79175  -2.78120  -2.78119
 Alpha  occ. eigenvalues --   -1.20364  -1.04337  -1.00253  -0.94210  -0.91748
 Alpha  occ. eigenvalues --   -0.88776  -0.86547  -0.80566  -0.76684  -0.73364
 Alpha  occ. eigenvalues --   -0.68301  -0.67532  -0.62983  -0.62076  -0.60035
 Alpha  occ. eigenvalues --   -0.58790  -0.57844  -0.57249  -0.56255  -0.54110
 Alpha  occ. eigenvalues --   -0.53760  -0.51650  -0.50975  -0.49702  -0.48194
 Alpha  occ. eigenvalues --   -0.48071  -0.43939  -0.41950  -0.40299  -0.39821
 Alpha  occ. eigenvalues --   -0.38319
 Alpha virt. eigenvalues --   -0.12470  -0.02054   0.00580   0.02923   0.06512
 Alpha virt. eigenvalues --    0.10505   0.10897   0.11918   0.14204   0.15167
 Alpha virt. eigenvalues --    0.15923   0.16300   0.16614   0.17240   0.17582
 Alpha virt. eigenvalues --    0.18131   0.19136   0.20329   0.21225   0.22720
 Alpha virt. eigenvalues --    0.22902   0.23819   0.24418   0.25335   0.26080
 Alpha virt. eigenvalues --    0.27058   0.27313   0.27647   0.28138   0.28482
 Alpha virt. eigenvalues --    0.28743   0.29938   0.30609   0.31367   0.32590
 Alpha virt. eigenvalues --    0.32723   0.33566   0.34373   0.35012   0.35921
 Alpha virt. eigenvalues --    0.36247   0.38184   0.38361   0.39537   0.40149
 Alpha virt. eigenvalues --    0.41165   0.41534   0.42621   0.43083   0.44205
 Alpha virt. eigenvalues --    0.44877   0.45289   0.45806   0.46377   0.46836
 Alpha virt. eigenvalues --    0.47637   0.48573   0.49288   0.50573   0.50668
 Alpha virt. eigenvalues --    0.51697   0.52227   0.52481   0.53330   0.53934
 Alpha virt. eigenvalues --    0.54355   0.54898   0.56222   0.57325   0.57971
 Alpha virt. eigenvalues --    0.59304   0.60955   0.61977   0.62307   0.64829
 Alpha virt. eigenvalues --    0.66840   0.67642   0.68693   0.69639   0.69981
 Alpha virt. eigenvalues --    0.70659   0.72053   0.72971   0.74410   0.75471
 Alpha virt. eigenvalues --    0.76213   0.76996   0.77821   0.79682   0.80744
 Alpha virt. eigenvalues --    0.81305   0.82060   0.84483   0.86383   0.87135
 Alpha virt. eigenvalues --    0.89347   0.90343   0.91519   0.93099   0.93746
 Alpha virt. eigenvalues --    0.95047   0.95650   0.96322   0.97352   1.00765
 Alpha virt. eigenvalues --    1.02162   1.03452   1.04477   1.05594   1.06183
 Alpha virt. eigenvalues --    1.07817   1.08771   1.09552   1.10810   1.12256
 Alpha virt. eigenvalues --    1.13033   1.14954   1.16422   1.18957   1.21109
 Alpha virt. eigenvalues --    1.22073   1.22907   1.23374   1.25788   1.26095
 Alpha virt. eigenvalues --    1.26955   1.28224   1.29339   1.30375   1.32044
 Alpha virt. eigenvalues --    1.33220   1.37069   1.40465   1.41779   1.41872
 Alpha virt. eigenvalues --    1.42511   1.43400   1.44523   1.46799   1.48238
 Alpha virt. eigenvalues --    1.49055   1.50314   1.51372   1.52118   1.52296
 Alpha virt. eigenvalues --    1.52880   1.54218   1.55228   1.56405   1.57794
 Alpha virt. eigenvalues --    1.58350   1.58540   1.59598   1.60664   1.60856
 Alpha virt. eigenvalues --    1.62774   1.63642   1.65338   1.65936   1.66079
 Alpha virt. eigenvalues --    1.67028   1.68619   1.69302   1.69934   1.71336
 Alpha virt. eigenvalues --    1.72480   1.73430   1.74137   1.74664   1.75489
 Alpha virt. eigenvalues --    1.76232   1.77296   1.77371   1.78997   1.82536
 Alpha virt. eigenvalues --    1.86002   1.88322   1.89094   1.91570   1.92353
 Alpha virt. eigenvalues --    1.93523   1.96207   1.97956   1.98674   2.01335
 Alpha virt. eigenvalues --    2.02472   2.02875   2.05897   2.06357   2.09220
 Alpha virt. eigenvalues --    2.10822   2.11185   2.11939   2.14881   2.15999
 Alpha virt. eigenvalues --    2.17882   2.18656   2.20216   2.22635   2.24243
 Alpha virt. eigenvalues --    2.25046   2.25906   2.26879   2.29690   2.30653
 Alpha virt. eigenvalues --    2.33043   2.38636   2.39703   2.42170   2.42835
 Alpha virt. eigenvalues --    2.43810   2.45994   2.48597   2.50176   2.51151
 Alpha virt. eigenvalues --    2.52221   2.54585   2.56749   2.58242   2.59090
 Alpha virt. eigenvalues --    2.60253   2.62433   2.62763   2.63898   2.66359
 Alpha virt. eigenvalues --    2.68793   2.69433   2.69867   2.71342   2.72310
 Alpha virt. eigenvalues --    2.73766   2.74053   2.75689   2.76432   2.77362
 Alpha virt. eigenvalues --    2.77755   2.80483   2.81272   2.81465   2.82192
 Alpha virt. eigenvalues --    2.85577   2.86162   2.87688   2.88170   2.89173
 Alpha virt. eigenvalues --    2.90406   2.90809   2.93904   2.95210   2.97143
 Alpha virt. eigenvalues --    2.97657   3.00252   3.01881   3.02789   3.03951
 Alpha virt. eigenvalues --    3.06397   3.07509   3.08413   3.09478   3.13268
 Alpha virt. eigenvalues --    3.13853   3.14261   3.15416   3.15830   3.16979
 Alpha virt. eigenvalues --    3.17190   3.18211   3.19127   3.20501   3.21919
 Alpha virt. eigenvalues --    3.23525   3.24370   3.25848   3.26663   3.27821
 Alpha virt. eigenvalues --    3.28883   3.31503   3.32660   3.34154   3.34570
 Alpha virt. eigenvalues --    3.35615   3.37152   3.37901   3.39001   3.39961
 Alpha virt. eigenvalues --    3.41107   3.41628   3.42120   3.44315   3.45266
 Alpha virt. eigenvalues --    3.45765   3.46991   3.48594   3.49691   3.51251
 Alpha virt. eigenvalues --    3.51498   3.53704   3.54239   3.57445   3.57769
 Alpha virt. eigenvalues --    3.60513   3.63665   3.64102   3.65467   3.68762
 Alpha virt. eigenvalues --    3.71686   3.72727   3.74188   3.77189   3.79178
 Alpha virt. eigenvalues --    3.82400   3.83708   3.87970   3.90501   3.92582
 Alpha virt. eigenvalues --    3.95098   3.95856   3.98486   3.99167   4.00771
 Alpha virt. eigenvalues --    4.02151   4.05168   4.07724   4.08230   4.10211
 Alpha virt. eigenvalues --    4.12013   4.13283   4.13940   4.17092   4.19104
 Alpha virt. eigenvalues --    4.21537   4.22369   4.23219   4.25643   4.26306
 Alpha virt. eigenvalues --    4.27474   4.30090   4.33298   4.35126   4.37099
 Alpha virt. eigenvalues --    4.39158   4.40630   4.44507   4.46557   4.48044
 Alpha virt. eigenvalues --    4.53830   4.54964   4.62440   4.67666   4.68871
 Alpha virt. eigenvalues --    4.70640   4.72583   4.75523   4.77234   4.78056
 Alpha virt. eigenvalues --    4.81203   4.86829   4.87631   4.91626   4.96542
 Alpha virt. eigenvalues --    5.00947   5.12172   5.16548   5.24518   5.24893
 Alpha virt. eigenvalues --    5.29218   5.36142   5.41895   5.47865   5.53103
 Alpha virt. eigenvalues --    5.65826   5.74566   5.77209   6.21765   6.41437
 Alpha virt. eigenvalues --    6.44731   6.60261   6.60946   6.86600   7.08453
 Alpha virt. eigenvalues --    7.14581   7.71703  22.07444  22.42219  22.49481
 Alpha virt. eigenvalues --   22.63716  22.66006  22.75543  22.79243  22.91136
 Alpha virt. eigenvalues --   23.10229  23.30006  43.95495
          Condensed to atoms (all electrons):
               1          2          3          4          5          6
     1  C    5.315226   0.121722   0.030571   0.013809   0.021640   0.292813
     2  C    0.121722   5.436743   0.201779   0.116761  -0.148533  -0.029689
     3  Br   0.030571   0.201779  34.803249   0.002652  -0.001384  -0.001304
     4  C    0.013809   0.116761   0.002652   4.746768   0.616157   0.015212
     5  O    0.021640  -0.148533  -0.001384   0.616157   7.865374   0.010229
     6  C    0.292813  -0.029689  -0.001304   0.015212   0.010229   5.009391
     7  C   -0.071222   0.013263   0.001274  -0.000205  -0.000817   0.374961
     8  C    0.000932  -0.001868  -0.000011   0.000063   0.000011   0.019444
     9  C   -0.001835   0.000447   0.000301   0.000009  -0.000004  -0.077349
    10  C    0.006411  -0.000621  -0.002370  -0.000200   0.000028   0.006427
    11  C   -0.055666   0.005857  -0.004807  -0.002604   0.000382   0.286546
    12  C    0.009669  -0.084953  -0.006075   0.365474  -0.061796   0.001797
    13  H    0.389138  -0.026830  -0.002278  -0.011628   0.021859  -0.021943
    14  H   -0.054799   0.418432  -0.038655  -0.019708   0.002480   0.002173
    15  H    0.003463   0.002133  -0.000080  -0.000116  -0.000072  -0.062887
    16  H   -0.000687   0.000004  -0.000005   0.000000   0.000000   0.011408
    17  H   -0.000009  -0.000001   0.000001   0.000000   0.000000  -0.002520
    18  H   -0.000503   0.000074  -0.000019  -0.000000   0.000000   0.010295
    19  H   -0.006546   0.005730   0.001904   0.000075  -0.000014  -0.057359
    20  H    0.002056   0.015806   0.001211  -0.034387   0.001938  -0.000742
    21  H   -0.002946  -0.001110   0.000771  -0.019809   0.000549   0.000934
    22  H   -0.001215   0.011689  -0.000936  -0.044429   0.004142  -0.000005
               7          8          9         10         11         12
     1  C   -0.071222   0.000932  -0.001835   0.006411  -0.055666   0.009669
     2  C    0.013263  -0.001868   0.000447  -0.000621   0.005857  -0.084953
     3  Br   0.001274  -0.000011   0.000301  -0.002370  -0.004807  -0.006075
     4  C   -0.000205   0.000063   0.000009  -0.000200  -0.002604   0.365474
     5  O   -0.000817   0.000011  -0.000004   0.000028   0.000382  -0.061796
     6  C    0.374961   0.019444  -0.077349   0.006427   0.286546   0.001797
     7  C    4.982649   0.440939   0.037466  -0.055224   0.006127  -0.000009
     8  C    0.440939   4.944120   0.400697   0.028534  -0.067278  -0.000001
     9  C    0.037466   0.400697   4.851527   0.390888   0.049446   0.000001
    10  C   -0.055224   0.028534   0.390888   4.949824   0.433086  -0.000015
    11  C    0.006127  -0.067278   0.049446   0.433086   5.065281   0.000095
    12  C   -0.000009  -0.000001   0.000001  -0.000015   0.000095   4.951437
    13  H   -0.006932   0.000493  -0.000096   0.000106   0.008722   0.001295
    14  H   -0.000666   0.000101  -0.000196   0.002459   0.003429   0.004335
    15  H    0.446448  -0.045880   0.009620  -0.003713   0.010894   0.000002
    16  H   -0.051542   0.448664  -0.049007   0.009323  -0.003460   0.000000
    17  H    0.009415  -0.046581   0.433845  -0.045843   0.010131   0.000000
    18  H   -0.002515   0.008226  -0.046901   0.442702  -0.046409   0.000000
    19  H    0.005576  -0.001945   0.007805  -0.025730   0.434479   0.000213
    20  H    0.000000   0.000000  -0.000000   0.000007   0.000134   0.389028
    21  H    0.000011  -0.000000   0.000000  -0.000016  -0.000253   0.393969
    22  H    0.000001  -0.000000   0.000000  -0.000001  -0.000010   0.412238
              13         14         15         16         17         18
     1  C    0.389138  -0.054799   0.003463  -0.000687  -0.000009  -0.000503
     2  C   -0.026830   0.418432   0.002133   0.000004  -0.000001   0.000074
     3  Br  -0.002278  -0.038655  -0.000080  -0.000005   0.000001  -0.000019
     4  C   -0.011628  -0.019708  -0.000116   0.000000   0.000000  -0.000000
     5  O    0.021859   0.002480  -0.000072   0.000000   0.000000   0.000000
     6  C   -0.021943   0.002173  -0.062887   0.011408  -0.002520   0.010295
     7  C   -0.006932  -0.000666   0.446448  -0.051542   0.009415  -0.002515
     8  C    0.000493   0.000101  -0.045880   0.448664  -0.046581   0.008226
     9  C   -0.000096  -0.000196   0.009620  -0.049007   0.433845  -0.046901
    10  C    0.000106   0.002459  -0.003713   0.009323  -0.045843   0.442702
    11  C    0.008722   0.003429   0.010894  -0.003460   0.010131  -0.046409
    12  C    0.001295   0.004335   0.000002   0.000000   0.000000   0.000000
    13  H    0.419787   0.001927   0.002840  -0.000001  -0.000000   0.000005
    14  H    0.001927   0.475971  -0.000022   0.000001  -0.000000   0.000043
    15  H    0.002840  -0.000022   0.461389  -0.005818  -0.000024   0.000008
    16  H   -0.000001   0.000001  -0.005818   0.469134  -0.005711  -0.000001
    17  H   -0.000000  -0.000000  -0.000024  -0.005711   0.466030  -0.005448
    18  H    0.000005   0.000043   0.000008  -0.000001  -0.005448   0.468447
    19  H    0.000139   0.000166   0.000038   0.000013  -0.000057  -0.005680
    20  H   -0.000021  -0.001107  -0.000000  -0.000000  -0.000000  -0.000000
    21  H   -0.000162  -0.002196   0.000001   0.000000   0.000000   0.000000
    22  H   -0.000082   0.000068   0.000000  -0.000000   0.000000  -0.000000
              19         20         21         22
     1  C   -0.006546   0.002056  -0.002946  -0.001215
     2  C    0.005730   0.015806  -0.001110   0.011689
     3  Br   0.001904   0.001211   0.000771  -0.000936
     4  C    0.000075  -0.034387  -0.019809  -0.044429
     5  O   -0.000014   0.001938   0.000549   0.004142
     6  C   -0.057359  -0.000742   0.000934  -0.000005
     7  C    0.005576   0.000000   0.000011   0.000001
     8  C   -0.001945   0.000000  -0.000000  -0.000000
     9  C    0.007805  -0.000000   0.000000   0.000000
    10  C   -0.025730   0.000007  -0.000016  -0.000001
    11  C    0.434479   0.000134  -0.000253  -0.000010
    12  C    0.000213   0.389028   0.393969   0.412238
    13  H    0.000139  -0.000021  -0.000162  -0.000082
    14  H    0.000166  -0.001107  -0.002196   0.000068
    15  H    0.000038  -0.000000   0.000001   0.000000
    16  H    0.000013  -0.000000   0.000000  -0.000000
    17  H   -0.000057  -0.000000   0.000000   0.000000
    18  H   -0.005680  -0.000000   0.000000  -0.000000
    19  H    0.467957   0.000017   0.000007  -0.000001
    20  H    0.000017   0.490813  -0.016893  -0.014999
    21  H    0.000007  -0.016893   0.483116  -0.011641
    22  H   -0.000001  -0.014999  -0.011641   0.484777
 Mulliken charges:
               1
     1  C   -0.012023
     2  C   -0.056835
     3  Br   0.014213
     4  C    0.256106
     5  O   -0.332169
     6  C    0.212166
     7  C   -0.128998
     8  C   -0.128662
     9  C   -0.006665
    10  C   -0.136062
    11  C   -0.134123
    12  C   -0.376704
    13  H    0.223663
    14  H    0.205763
    15  H    0.181776
    16  H    0.177683
    17  H    0.186772
    18  H    0.177675
    19  H    0.173212
    20  H    0.167138
    21  H    0.175669
    22  H    0.160404
 Sum of Mulliken charges =   1.00000
 Mulliken charges with hydrogens summed into heavy atoms:
               1
     1  C    0.211640
     2  C    0.148928
     3  Br   0.014213
     4  C    0.256106
     5  O   -0.332169
     6  C    0.212166
     7  C    0.052779
     8  C    0.049022
     9  C    0.180107
    10  C    0.041614
    11  C    0.039089
    12  C    0.126507
 Electronic spatial extent (au):  <R**2>=           3280.7673
 Charge=              1.0000 electrons
 Dipole moment (field-independent basis, Debye):
    X=              7.4480    Y=              0.6091    Z=              3.1816  Tot=              8.1220
 Quadrupole moment (field-independent basis, Debye-Ang):
   XX=            -34.3891   YY=            -81.7673   ZZ=            -67.4132
   XY=              1.1762   XZ=             -6.9694   YZ=              3.1339
 Traceless Quadrupole moment (field-independent basis, Debye-Ang):
   XX=             26.8008   YY=            -20.5774   ZZ=             -6.2233
   XY=              1.1762   XZ=             -6.9694   YZ=              3.1339
 Octapole moment (field-independent basis, Debye-Ang**2):
  XXX=             92.0221  YYY=            -49.6239  ZZZ=             -0.8271  XYY=            -27.5460
  XXY=             -9.3298  XXZ=             20.2716  XZZ=              7.0159  YZZ=            -10.4370
  YYZ=              6.2081  XYZ=            -22.7809
 Hexadecapole moment (field-independent basis, Debye-Ang**3):
 XXXX=          -2079.7497 YYYY=           -621.8333 ZZZZ=           -390.2065 XXXY=             29.6088
 XXXZ=            -14.2122 YYYX=             79.5136 YYYZ=             34.7945 ZZZX=              4.7146
 ZZZY=             -2.6926 XXYY=           -609.7593 XXZZ=           -480.7343 YYZZ=           -180.9409
 XXYZ=              8.2616 YYXZ=            -21.5459 ZZXY=             22.2128
 N-N= 9.252456791559D+02 E-N=-9.058913935261D+03  KE= 3.030458768879D+03
 ******************************Gaussian NBO Version 3.1******************************
             N A T U R A L   A T O M I C   O R B I T A L   A N D
          N A T U R A L   B O N D   O R B I T A L   A N A L Y S I S
 ******************************Gaussian NBO Version 3.1******************************
       /RESON  / : Allow strongly delocalized NBO set

 Analyzing the SCF density

 Job title: These are very "NANI?                                           

 Storage needed:    606761 in NPA,    808283 in NBO (4831835568 available)
 GSVD:  LWork=       71559 too small for GESVD, short by      186248 words or      186248 for optimal perf.


 NATURAL POPULATIONS:  Natural atomic orbital occupancies 
                                                          
   NAO  Atom  No  lang   Type(AO)    Occupancy      Energy
 ----------------------------------------------------------
     1    C    1  S      Cor( 1S)     1.99915     -10.26443
     2    C    1  S      Val( 2S)     1.01388      -0.34833
     3    C    1  S      Ryd( 3S)     0.00117       1.32088
     4    C    1  S      Ryd( 4S)     0.00024       1.66659
     5    C    1  S      Ryd( 5S)     0.00000      21.26204
     6    C    1  px     Val( 2p)     0.99360      -0.12800
     7    C    1  px     Ryd( 3p)     0.00402       0.88634
     8    C    1  px     Ryd( 4p)     0.00016       3.37121
     9    C    1  py     Val( 2p)     0.65416      -0.16531
    10    C    1  py     Ryd( 3p)     0.00331       0.60200
    11    C    1  py     Ryd( 4p)     0.00013       1.73595
    12    C    1  pz     Val( 2p)     1.13163      -0.15750
    13    C    1  pz     Ryd( 3p)     0.00469       0.91361
    14    C    1  pz     Ryd( 4p)     0.00011       2.73237
    15    C    1  dxy    Ryd( 3d)     0.00108       1.41729
    16    C    1  dxy    Ryd( 4d)     0.00023       3.16030
    17    C    1  dxz    Ryd( 3d)     0.00278       1.53358
    18    C    1  dxz    Ryd( 4d)     0.00033       3.48221
    19    C    1  dyz    Ryd( 3d)     0.00037       1.31764
    20    C    1  dyz    Ryd( 4d)     0.00012       2.92407
    21    C    1  dx2y2  Ryd( 3d)     0.00180       1.64244
    22    C    1  dx2y2  Ryd( 4d)     0.00024       3.60196
    23    C    1  dz2    Ryd( 3d)     0.00184       1.58759
    24    C    1  dz2    Ryd( 4d)     0.00039       3.35529
    25    C    1  f(0)   Ryd( 4f)     0.00007       3.74292
    26    C    1  f(C1)  Ryd( 4f)     0.00008       3.94888
    27    C    1  f(S1)  Ryd( 4f)     0.00009       3.27112
    28    C    1  f(C2)  Ryd( 4f)     0.00035       3.70682
    29    C    1  f(S2)  Ryd( 4f)     0.00004       3.51479
    30    C    1  f(C3)  Ryd( 4f)     0.00018       3.73244
    31    C    1  f(S3)  Ryd( 4f)     0.00018       3.59748
 
    32    C    2  S      Cor( 1S)     1.99905     -10.27624
    33    C    2  S      Val( 2S)     1.10749      -0.43138
    34    C    2  S      Ryd( 3S)     0.00167       1.55191
    35    C    2  S      Ryd( 4S)     0.00068       1.85040
    36    C    2  S      Ryd( 5S)     0.00000      21.21840
    37    C    2  px     Val( 2p)     1.08050      -0.22095
    38    C    2  px     Ryd( 3p)     0.00369       0.94423
    39    C    2  px     Ryd( 4p)     0.00060       1.51559
    40    C    2  py     Val( 2p)     0.99189      -0.24002
    41    C    2  py     Ryd( 3p)     0.00210       0.80411
    42    C    2  py     Ryd( 4p)     0.00175       1.27574
    43    C    2  pz     Val( 2p)     1.21230      -0.22497
    44    C    2  pz     Ryd( 3p)     0.00464       0.99854
    45    C    2  pz     Ryd( 4p)     0.00165       1.48246
    46    C    2  dxy    Ryd( 3d)     0.00287       1.21205
    47    C    2  dxy    Ryd( 4d)     0.00012       3.47015
    48    C    2  dxz    Ryd( 3d)     0.00264       1.28335
    49    C    2  dxz    Ryd( 4d)     0.00015       3.48612
    50    C    2  dyz    Ryd( 3d)     0.00300       1.14432
    51    C    2  dyz    Ryd( 4d)     0.00014       3.22059
    52    C    2  dx2y2  Ryd( 3d)     0.00206       1.16783
    53    C    2  dx2y2  Ryd( 4d)     0.00024       3.42728
    54    C    2  dz2    Ryd( 3d)     0.00229       1.27438
    55    C    2  dz2    Ryd( 4d)     0.00039       3.49868
    56    C    2  f(0)   Ryd( 4f)     0.00012       3.79241
    57    C    2  f(C1)  Ryd( 4f)     0.00007       3.80659
    58    C    2  f(S1)  Ryd( 4f)     0.00007       3.30757
    59    C    2  f(C2)  Ryd( 4f)     0.00009       3.61016
    60    C    2  f(S2)  Ryd( 4f)     0.00005       3.54019
    61    C    2  f(C3)  Ryd( 4f)     0.00011       3.64986
    62    C    2  f(S3)  Ryd( 4f)     0.00009       3.50207
 
    63   Br    3  S      Cor( 1S)     2.00000    -471.70221
    64   Br    3  S      Cor( 2S)     2.00000     -71.12363
    65   Br    3  S      Cor( 3S)     1.99984     -11.69161
    66   Br    3  S      Val( 4S)     1.89536      -1.07310
    67   Br    3  S      Ryd( 5S)     0.00079       1.53316
    68   Br    3  S      Ryd( 6S)     0.00000       7.43293
    69   Br    3  px     Cor( 2p)     2.00000     -56.42236
    70   Br    3  px     Cor( 3p)     1.99997      -6.77076
    71   Br    3  px     Val( 4p)     1.82049      -0.40030
    72   Br    3  px     Ryd( 5p)     0.00095       0.49470
    73   Br    3  px     Ryd( 6p)     0.00004       1.63364
    74   Br    3  py     Cor( 2p)     2.00000     -56.42498
    75   Br    3  py     Cor( 3p)     1.99990      -6.77767
    76   Br    3  py     Val( 4p)     1.24602      -0.32268
    77   Br    3  py     Ryd( 5p)     0.00140       0.49133
    78   Br    3  py     Ryd( 6p)     0.00004       1.71398
    79   Br    3  pz     Cor( 2p)     2.00000     -56.42196
    80   Br    3  pz     Cor( 3p)     1.99998      -6.76955
    81   Br    3  pz     Val( 4p)     1.89353      -0.40749
    82   Br    3  pz     Ryd( 5p)     0.00083       0.49270
    83   Br    3  pz     Ryd( 6p)     0.00005       1.59764
    84   Br    3  dxy    Cor( 3d)     1.99987      -2.79128
    85   Br    3  dxy    Ryd( 4d)     0.00147       1.30566
    86   Br    3  dxy    Ryd( 5d)     0.00007       1.63392
    87   Br    3  dxy    Ryd( 6d)     0.00001       4.12664
    88   Br    3  dxz    Cor( 3d)     1.99997      -2.78338
    89   Br    3  dxz    Ryd( 4d)     0.00029       0.86048
    90   Br    3  dxz    Ryd( 5d)     0.00011       1.36356
    91   Br    3  dxz    Ryd( 6d)     0.00000       4.02838
    92   Br    3  dyz    Cor( 3d)     1.99989      -2.79025
    93   Br    3  dyz    Ryd( 4d)     0.00097       1.20956
    94   Br    3  dyz    Ryd( 5d)     0.00014       1.56288
    95   Br    3  dyz    Ryd( 6d)     0.00001       4.09133
    96   Br    3  dx2y2  Cor( 3d)     1.99984      -2.79123
    97   Br    3  dx2y2  Ryd( 4d)     0.00155       1.33819
    98   Br    3  dx2y2  Ryd( 5d)     0.00006       1.58798
    99   Br    3  dx2y2  Ryd( 6d)     0.00001       4.13802
   100   Br    3  dz2    Cor( 3d)     1.99994      -2.78530
   101   Br    3  dz2    Ryd( 4d)     0.00077       1.02335
   102   Br    3  dz2    Ryd( 5d)     0.00004       1.38157
   103   Br    3  dz2    Ryd( 6d)     0.00000       4.06524
   104   Br    3  f(0)   Ryd( 4f)     0.00004       1.69509
   105   Br    3  f(C1)  Ryd( 4f)     0.00002       1.64433
   106   Br    3  f(S1)  Ryd( 4f)     0.00008       1.77596
   107   Br    3  f(C2)  Ryd( 4f)     0.00004       1.76231
   108   Br    3  f(S2)  Ryd( 4f)     0.00005       1.73873
   109   Br    3  f(C3)  Ryd( 4f)     0.00007       1.82432
   110   Br    3  f(S3)  Ryd( 4f)     0.00010       1.83322
 
   111    C    4  S      Cor( 1S)     1.99943     -10.30061
   112    C    4  S      Val( 2S)     0.88650      -0.26010
   113    C    4  S      Ryd( 4S)     0.00585       1.39888
   114    C    4  S      Ryd( 3S)     0.00019       1.09583
   115    C    4  S      Ryd( 5S)     0.00001      21.76276
   116    C    4  px     Val( 2p)     0.88812      -0.12199
   117    C    4  px     Ryd( 3p)     0.00275       1.13730
   118    C    4  px     Ryd( 4p)     0.00014       1.37015
   119    C    4  py     Val( 2p)     0.77602      -0.11042
   120    C    4  py     Ryd( 3p)     0.00552       0.99737
   121    C    4  py     Ryd( 4p)     0.00024       1.33635
   122    C    4  pz     Val( 2p)     0.81554      -0.07049
   123    C    4  pz     Ryd( 3p)     0.01164       1.14400
   124    C    4  pz     Ryd( 4p)     0.00020       1.61624
   125    C    4  dxy    Ryd( 4d)     0.00068       3.44708
   126    C    4  dxy    Ryd( 3d)     0.00016       2.86905
   127    C    4  dxz    Ryd( 4d)     0.00108       3.58493
   128    C    4  dxz    Ryd( 3d)     0.00021       2.92136
   129    C    4  dyz    Ryd( 4d)     0.00065       3.52951
   130    C    4  dyz    Ryd( 3d)     0.00016       2.64972
   131    C    4  dx2y2  Ryd( 4d)     0.00041       3.12858
   132    C    4  dx2y2  Ryd( 3d)     0.00007       2.54908
   133    C    4  dz2    Ryd( 4d)     0.00101       3.61445
   134    C    4  dz2    Ryd( 3d)     0.00015       2.68740
   135    C    4  f(0)   Ryd( 4f)     0.00002       3.83236
   136    C    4  f(C1)  Ryd( 4f)     0.00006       3.86614
   137    C    4  f(S1)  Ryd( 4f)     0.00005       3.72362
   138    C    4  f(C2)  Ryd( 4f)     0.00004       3.65456
   139    C    4  f(S2)  Ryd( 4f)     0.00004       3.80653
   140    C    4  f(C3)  Ryd( 4f)     0.00006       3.46606
   141    C    4  f(S3)  Ryd( 4f)     0.00003       3.51157
 
   142    O    5  S      Cor( 1S)     1.99975     -18.98721
   143    O    5  S      Val( 2S)     1.68605      -1.03406
   144    O    5  S      Ryd( 3S)     0.00052       1.76970
   145    O    5  S      Ryd( 4S)     0.00003       3.84002
   146    O    5  S      Ryd( 5S)     0.00000      42.56089
   147    O    5  px     Val( 2p)     1.71421      -0.37037
   148    O    5  px     Ryd( 3p)     0.00222       0.79315
   149    O    5  px     Ryd( 4p)     0.00005       3.10121
   150    O    5  py     Val( 2p)     1.53295      -0.36326
   151    O    5  py     Ryd( 3p)     0.00115       0.70401
   152    O    5  py     Ryd( 4p)     0.00009       3.22737
   153    O    5  pz     Val( 2p)     1.56604      -0.39429
   154    O    5  pz     Ryd( 3p)     0.00094       0.67958
   155    O    5  pz     Ryd( 4p)     0.00014       3.70887
   156    O    5  dxy    Ryd( 3d)     0.00136       1.64542
   157    O    5  dxy    Ryd( 4d)     0.00002       6.38850
   158    O    5  dxz    Ryd( 3d)     0.00353       1.79713
   159    O    5  dxz    Ryd( 4d)     0.00004       6.51835
   160    O    5  dyz    Ryd( 3d)     0.00717       1.97218
   161    O    5  dyz    Ryd( 4d)     0.00001       6.60938
   162    O    5  dx2y2  Ryd( 3d)     0.00177       1.62615
   163    O    5  dx2y2  Ryd( 4d)     0.00001       6.36114
   164    O    5  dz2    Ryd( 3d)     0.00707       1.91357
   165    O    5  dz2    Ryd( 4d)     0.00001       6.59506
   166    O    5  f(0)   Ryd( 4f)     0.00022       5.78750
   167    O    5  f(C1)  Ryd( 4f)     0.00014       5.62711
   168    O    5  f(S1)  Ryd( 4f)     0.00016       6.00030
   169    O    5  f(C2)  Ryd( 4f)     0.00011       5.60091
   170    O    5  f(S2)  Ryd( 4f)     0.00013       5.57727
   171    O    5  f(C3)  Ryd( 4f)     0.00003       5.30473
   172    O    5  f(S3)  Ryd( 4f)     0.00003       5.30773
 
   173    C    6  S      Cor( 1S)     1.99906     -10.20877
   174    C    6  S      Val( 2S)     0.92368      -0.26701
   175    C    6  S      Ryd( 3S)     0.00125       1.38838
   176    C    6  S      Ryd( 4S)     0.00020       1.72601
   177    C    6  S      Ryd( 5S)     0.00000      21.20923
   178    C    6  px     Val( 2p)     1.10115      -0.16655
   179    C    6  px     Ryd( 3p)     0.00687       1.21051
   180    C    6  px     Ryd( 4p)     0.00033       1.65237
   181    C    6  py     Val( 2p)     1.05494      -0.18786
   182    C    6  py     Ryd( 3p)     0.00109       0.79298
   183    C    6  py     Ryd( 4p)     0.00004       1.32304
   184    C    6  pz     Val( 2p)     1.09962      -0.15695
   185    C    6  pz     Ryd( 3p)     0.00479       1.20694
   186    C    6  pz     Ryd( 4p)     0.00039       1.48711
   187    C    6  dxy    Ryd( 3d)     0.00044       1.19132
   188    C    6  dxy    Ryd( 4d)     0.00012       3.41341
   189    C    6  dxz    Ryd( 3d)     0.00176       1.97441
   190    C    6  dxz    Ryd( 4d)     0.00077       3.75172
   191    C    6  dyz    Ryd( 3d)     0.00017       1.27853
   192    C    6  dyz    Ryd( 4d)     0.00034       3.41102
   193    C    6  dx2y2  Ryd( 3d)     0.00088       1.76828
   194    C    6  dx2y2  Ryd( 4d)     0.00034       3.67394
   195    C    6  dz2    Ryd( 3d)     0.00155       1.88144
   196    C    6  dz2    Ryd( 4d)     0.00063       3.66170
   197    C    6  f(0)   Ryd( 4f)     0.00005       4.02056
   198    C    6  f(C1)  Ryd( 4f)     0.00005       4.36167
   199    C    6  f(S1)  Ryd( 4f)     0.00006       3.60221
   200    C    6  f(C2)  Ryd( 4f)     0.00007       3.97971
   201    C    6  f(S2)  Ryd( 4f)     0.00001       3.65260
   202    C    6  f(C3)  Ryd( 4f)     0.00007       3.83689
   203    C    6  f(S3)  Ryd( 4f)     0.00010       3.57919
 
   204    C    7  S      Cor( 1S)     1.99917     -10.20889
   205    C    7  S      Val( 2S)     0.98909      -0.29015
   206    C    7  S      Ryd( 3S)     0.00104       1.32496
   207    C    7  S      Ryd( 4S)     0.00024       1.46928
   208    C    7  S      Ryd( 5S)     0.00000      21.40654
   209    C    7  px     Val( 2p)     1.04490      -0.11440
   210    C    7  px     Ryd( 3p)     0.00326       1.12348
   211    C    7  px     Ryd( 4p)     0.00021       2.70800
   212    C    7  py     Val( 2p)     0.84441      -0.15476
   213    C    7  py     Ryd( 3p)     0.00096       0.70017
   214    C    7  py     Ryd( 4p)     0.00036       1.46196
   215    C    7  pz     Val( 2p)     1.13016      -0.12781
   216    C    7  pz     Ryd( 3p)     0.00397       1.09807
   217    C    7  pz     Ryd( 4p)     0.00016       2.54812
   218    C    7  dxy    Ryd( 3d)     0.00049       1.41226
   219    C    7  dxy    Ryd( 4d)     0.00017       3.05883
   220    C    7  dxz    Ryd( 3d)     0.00274       1.64324
   221    C    7  dxz    Ryd( 4d)     0.00062       3.51812
   222    C    7  dyz    Ryd( 3d)     0.00043       1.37363
   223    C    7  dyz    Ryd( 4d)     0.00012       2.97543
   224    C    7  dx2y2  Ryd( 3d)     0.00115       1.64881
   225    C    7  dx2y2  Ryd( 4d)     0.00015       3.53852
   226    C    7  dz2    Ryd( 3d)     0.00098       1.80768
   227    C    7  dz2    Ryd( 4d)     0.00048       3.41031
   228    C    7  f(0)   Ryd( 4f)     0.00010       3.77381
   229    C    7  f(C1)  Ryd( 4f)     0.00011       4.14901
   230    C    7  f(S1)  Ryd( 4f)     0.00012       3.37840
   231    C    7  f(C2)  Ryd( 4f)     0.00021       3.77145
   232    C    7  f(S2)  Ryd( 4f)     0.00004       3.54607
   233    C    7  f(C3)  Ryd( 4f)     0.00014       3.71256
   234    C    7  f(S3)  Ryd( 4f)     0.00019       3.52990
 
   235    C    8  S      Cor( 1S)     1.99919     -10.18441
   236    C    8  S      Val( 2S)     0.98735      -0.27881
   237    C    8  S      Ryd( 3S)     0.00107       1.10326
   238    C    8  S      Ryd( 4S)     0.00018       1.46308
   239    C    8  S      Ryd( 5S)     0.00000      21.49100
   240    C    8  px     Val( 2p)     1.12193      -0.12779
   241    C    8  px     Ryd( 3p)     0.00429       1.14517
   242    C    8  px     Ryd( 4p)     0.00025       2.14672
   243    C    8  py     Val( 2p)     0.98930      -0.16155
   244    C    8  py     Ryd( 3p)     0.00091       0.76884
   245    C    8  py     Ryd( 4p)     0.00042       1.31526
   246    C    8  pz     Val( 2p)     1.12173      -0.13063
   247    C    8  pz     Ryd( 3p)     0.00391       1.15214
   248    C    8  pz     Ryd( 4p)     0.00018       2.06098
   249    C    8  dxy    Ryd( 3d)     0.00036       1.38760
   250    C    8  dxy    Ryd( 4d)     0.00017       2.99694
   251    C    8  dxz    Ryd( 3d)     0.00110       1.93690
   252    C    8  dxz    Ryd( 4d)     0.00077       3.62753
   253    C    8  dyz    Ryd( 3d)     0.00047       1.39617
   254    C    8  dyz    Ryd( 4d)     0.00007       3.00922
   255    C    8  dx2y2  Ryd( 3d)     0.00127       1.62414
   256    C    8  dx2y2  Ryd( 4d)     0.00018       3.35081
   257    C    8  dz2    Ryd( 3d)     0.00199       1.65620
   258    C    8  dz2    Ryd( 4d)     0.00034       3.31883
   259    C    8  f(0)   Ryd( 4f)     0.00008       3.88625
   260    C    8  f(C1)  Ryd( 4f)     0.00007       4.12544
   261    C    8  f(S1)  Ryd( 4f)     0.00011       3.53234
   262    C    8  f(C2)  Ryd( 4f)     0.00016       3.76296
   263    C    8  f(S2)  Ryd( 4f)     0.00003       3.43327
   264    C    8  f(C3)  Ryd( 4f)     0.00016       3.71766
   265    C    8  f(S3)  Ryd( 4f)     0.00016       3.47324
 
   266    C    9  S      Cor( 1S)     1.99925     -10.21241
   267    C    9  S      Val( 2S)     1.00460      -0.30179
   268    C    9  S      Ryd( 3S)     0.00078       1.10269
   269    C    9  S      Ryd( 4S)     0.00017       1.45380
   270    C    9  S      Ryd( 5S)     0.00000      21.60000
   271    C    9  px     Val( 2p)     1.17111      -0.13089
   272    C    9  px     Ryd( 3p)     0.00466       1.19494
   273    C    9  px     Ryd( 4p)     0.00008       2.16515
   274    C    9  py     Val( 2p)     0.80276      -0.14761
   275    C    9  py     Ryd( 3p)     0.00053       0.77263
   276    C    9  py     Ryd( 4p)     0.00027       1.32643
   277    C    9  pz     Val( 2p)     1.02450      -0.10678
   278    C    9  pz     Ryd( 3p)     0.00306       1.02026
   279    C    9  pz     Ryd( 4p)     0.00025       2.35379
   280    C    9  dxy    Ryd( 3d)     0.00063       1.35692
   281    C    9  dxy    Ryd( 4d)     0.00005       2.83119
   282    C    9  dxz    Ryd( 3d)     0.00215       1.73546
   283    C    9  dxz    Ryd( 4d)     0.00051       3.37455
   284    C    9  dyz    Ryd( 3d)     0.00030       1.51310
   285    C    9  dyz    Ryd( 4d)     0.00019       3.04803
   286    C    9  dx2y2  Ryd( 3d)     0.00079       1.66839
   287    C    9  dx2y2  Ryd( 4d)     0.00030       3.25172
   288    C    9  dz2    Ryd( 3d)     0.00130       1.87251
   289    C    9  dz2    Ryd( 4d)     0.00045       3.51963
   290    C    9  f(0)   Ryd( 4f)     0.00011       3.91013
   291    C    9  f(C1)  Ryd( 4f)     0.00008       4.17769
   292    C    9  f(S1)  Ryd( 4f)     0.00010       3.58180
   293    C    9  f(C2)  Ryd( 4f)     0.00009       3.75205
   294    C    9  f(S2)  Ryd( 4f)     0.00003       3.54375
   295    C    9  f(C3)  Ryd( 4f)     0.00018       3.47548
   296    C    9  f(S3)  Ryd( 4f)     0.00010       3.23874
 
   297    C   10  S      Cor( 1S)     1.99920     -10.18597
   298    C   10  S      Val( 2S)     0.98687      -0.27924
   299    C   10  S      Ryd( 3S)     0.00109       1.12117
   300    C   10  S      Ryd( 4S)     0.00017       1.46342
   301    C   10  S      Ryd( 5S)     0.00000      21.52289
   302    C   10  px     Val( 2p)     1.06295      -0.11941
   303    C   10  px     Ryd( 3p)     0.00387       1.08016
   304    C   10  px     Ryd( 4p)     0.00028       2.15164
   305    C   10  py     Val( 2p)     0.98944      -0.16206
   306    C   10  py     Ryd( 3p)     0.00094       0.77019
   307    C   10  py     Ryd( 4p)     0.00040       1.32451
   308    C   10  pz     Val( 2p)     1.17108      -0.13742
   309    C   10  pz     Ryd( 3p)     0.00437       1.20305
   310    C   10  pz     Ryd( 4p)     0.00014       2.03563
   311    C   10  dxy    Ryd( 3d)     0.00021       1.43347
   312    C   10  dxy    Ryd( 4d)     0.00019       3.03554
   313    C   10  dxz    Ryd( 3d)     0.00193       1.79289
   314    C   10  dxz    Ryd( 4d)     0.00057       3.48590
   315    C   10  dyz    Ryd( 3d)     0.00052       1.36596
   316    C   10  dyz    Ryd( 4d)     0.00009       2.95761
   317    C   10  dx2y2  Ryd( 3d)     0.00107       1.68963
   318    C   10  dx2y2  Ryd( 4d)     0.00017       3.45382
   319    C   10  dz2    Ryd( 3d)     0.00138       1.73491
   320    C   10  dz2    Ryd( 4d)     0.00052       3.36311
   321    C   10  f(0)   Ryd( 4f)     0.00008       3.76466
   322    C   10  f(C1)  Ryd( 4f)     0.00006       4.16163
   323    C   10  f(S1)  Ryd( 4f)     0.00011       3.38644
   324    C   10  f(C2)  Ryd( 4f)     0.00017       3.78571
   325    C   10  f(S2)  Ryd( 4f)     0.00003       3.53887
   326    C   10  f(C3)  Ryd( 4f)     0.00013       3.75103
   327    C   10  f(S3)  Ryd( 4f)     0.00018       3.53742
 
   328    C   11  S      Cor( 1S)     1.99914     -10.20743
   329    C   11  S      Val( 2S)     0.98382      -0.28543
   330    C   11  S      Ryd( 3S)     0.00113       1.33378
   331    C   11  S      Ryd( 4S)     0.00022       1.54690
   332    C   11  S      Ryd( 5S)     0.00000      21.34551
   333    C   11  px     Val( 2p)     1.11780      -0.13194
   334    C   11  px     Ryd( 3p)     0.00358       1.18558
   335    C   11  px     Ryd( 4p)     0.00015       2.42679
   336    C   11  py     Val( 2p)     0.85901      -0.15605
   337    C   11  py     Ryd( 3p)     0.00096       0.70357
   338    C   11  py     Ryd( 4p)     0.00040       1.49510
   339    C   11  pz     Val( 2p)     1.07524      -0.11421
   340    C   11  pz     Ryd( 3p)     0.00316       1.04725
   341    C   11  pz     Ryd( 4p)     0.00022       2.73382
   342    C   11  dxy    Ryd( 3d)     0.00049       1.38578
   343    C   11  dxy    Ryd( 4d)     0.00015       3.02306
   344    C   11  dxz    Ryd( 3d)     0.00142       1.99174
   345    C   11  dxz    Ryd( 4d)     0.00077       3.67993
   346    C   11  dyz    Ryd( 3d)     0.00049       1.39070
   347    C   11  dyz    Ryd( 4d)     0.00013       3.03724
   348    C   11  dx2y2  Ryd( 3d)     0.00138       1.57946
   349    C   11  dx2y2  Ryd( 4d)     0.00014       3.38909
   350    C   11  dz2    Ryd( 3d)     0.00217       1.56608
   351    C   11  dz2    Ryd( 4d)     0.00031       3.37512
   352    C   11  f(0)   Ryd( 4f)     0.00015       3.82680
   353    C   11  f(C1)  Ryd( 4f)     0.00011       4.18237
   354    C   11  f(S1)  Ryd( 4f)     0.00016       3.51071
   355    C   11  f(C2)  Ryd( 4f)     0.00019       3.76799
   356    C   11  f(S2)  Ryd( 4f)     0.00004       3.46747
   357    C   11  f(C3)  Ryd( 4f)     0.00016       3.65816
   358    C   11  f(S3)  Ryd( 4f)     0.00013       3.46616
 
   359    C   12  S      Cor( 1S)     1.99936     -10.16498
   360    C   12  S      Val( 2S)     1.13604      -0.36280
   361    C   12  S      Ryd( 3S)     0.00040       1.48838
   362    C   12  S      Ryd( 4S)     0.00014       2.19223
   363    C   12  S      Ryd( 5S)     0.00000      21.17313
   364    C   12  px     Val( 2p)     1.17001      -0.16334
   365    C   12  px     Ryd( 3p)     0.00056       0.98335
   366    C   12  px     Ryd( 4p)     0.00033       1.53321
   367    C   12  py     Val( 2p)     1.23870      -0.16995
   368    C   12  py     Ryd( 3p)     0.00062       1.00748
   369    C   12  py     Ryd( 4p)     0.00007       1.36415
   370    C   12  pz     Val( 2p)     1.16292      -0.16174
   371    C   12  pz     Ryd( 3p)     0.00087       0.92653
   372    C   12  pz     Ryd( 4p)     0.00007       1.45552
   373    C   12  dxy    Ryd( 3d)     0.00139       1.46829
   374    C   12  dxy    Ryd( 4d)     0.00007       3.09155
   375    C   12  dxz    Ryd( 3d)     0.00367       1.59598
   376    C   12  dxz    Ryd( 4d)     0.00003       3.16070
   377    C   12  dyz    Ryd( 3d)     0.00120       1.44345
   378    C   12  dyz    Ryd( 4d)     0.00010       3.01032
   379    C   12  dx2y2  Ryd( 3d)     0.00211       1.32685
   380    C   12  dx2y2  Ryd( 4d)     0.00009       2.94285
   381    C   12  dz2    Ryd( 3d)     0.00064       1.39732
   382    C   12  dz2    Ryd( 4d)     0.00007       2.98560
   383    C   12  f(0)   Ryd( 4f)     0.00003       3.53175
   384    C   12  f(C1)  Ryd( 4f)     0.00010       3.68688
   385    C   12  f(S1)  Ryd( 4f)     0.00004       3.48697
   386    C   12  f(C2)  Ryd( 4f)     0.00009       3.52278
   387    C   12  f(S2)  Ryd( 4f)     0.00016       3.69782
   388    C   12  f(C3)  Ryd( 4f)     0.00004       3.46936
   389    C   12  f(S3)  Ryd( 4f)     0.00007       3.53730
 
   390    H   13  S      Val( 1S)     0.74303       0.01309
   391    H   13  S      Ryd( 3S)     0.00111       1.52148
   392    H   13  S      Ryd( 2S)     0.00012       1.41823
   393    H   13  px     Ryd( 2p)     0.00013       2.84002
   394    H   13  py     Ryd( 2p)     0.00011       2.26555
   395    H   13  pz     Ryd( 2p)     0.00041       3.00723
 
   396    H   14  S      Val( 1S)     0.72844       0.00234
   397    H   14  S      Ryd( 2S)     0.00076       1.45064
   398    H   14  S      Ryd( 3S)     0.00013       1.46138
   399    H   14  px     Ryd( 2p)     0.00019       2.57678
   400    H   14  py     Ryd( 2p)     0.00014       2.36713
   401    H   14  pz     Ryd( 2p)     0.00044       3.18821
 
   402    H   15  S      Val( 1S)     0.75375       0.02030
   403    H   15  S      Ryd( 3S)     0.00038       1.50994
   404    H   15  S      Ryd( 2S)     0.00017       1.44119
   405    H   15  px     Ryd( 2p)     0.00014       2.84761
   406    H   15  py     Ryd( 2p)     0.00011       2.26035
   407    H   15  pz     Ryd( 2p)     0.00040       3.02315
 
   408    H   16  S      Val( 1S)     0.74775       0.03313
   409    H   16  S      Ryd( 2S)     0.00028       1.06226
   410    H   16  S      Ryd( 3S)     0.00019       1.76426
   411    H   16  px     Ryd( 2p)     0.00021       2.96522
   412    H   16  py     Ryd( 2p)     0.00010       2.25203
   413    H   16  pz     Ryd( 2p)     0.00024       2.95116
 
   414    H   17  S      Val( 1S)     0.75567       0.02649
   415    H   17  S      Ryd( 2S)     0.00024       0.98568
   416    H   17  S      Ryd( 3S)     0.00017       1.83902
   417    H   17  px     Ryd( 2p)     0.00040       3.07844
   418    H   17  py     Ryd( 2p)     0.00009       2.23492
   419    H   17  pz     Ryd( 2p)     0.00009       2.81135
 
   420    H   18  S      Val( 1S)     0.74881       0.03220
   421    H   18  S      Ryd( 2S)     0.00030       1.03021
   422    H   18  S      Ryd( 3S)     0.00019       1.79322
   423    H   18  px     Ryd( 2p)     0.00010       2.86349
   424    H   18  py     Ryd( 2p)     0.00011       2.26224
   425    H   18  pz     Ryd( 2p)     0.00035       3.04669
 
   426    H   19  S      Val( 1S)     0.75935       0.01549
   427    H   19  S      Ryd( 2S)     0.00054       1.46513
   428    H   19  S      Ryd( 3S)     0.00013       1.56240
   429    H   19  px     Ryd( 2p)     0.00025       2.97226
   430    H   19  py     Ryd( 2p)     0.00011       2.25767
   431    H   19  pz     Ryd( 2p)     0.00034       2.95549
 
   432    H   20  S      Val( 1S)     0.74930       0.01421
   433    H   20  S      Ryd( 2S)     0.00023       1.15961
   434    H   20  S      Ryd( 3S)     0.00009       1.42303
   435    H   20  px     Ryd( 2p)     0.00013       2.39522
   436    H   20  py     Ryd( 2p)     0.00019       2.82298
   437    H   20  pz     Ryd( 2p)     0.00010       2.37854
 
   438    H   21  S      Val( 1S)     0.74076       0.01267
   439    H   21  S      Ryd( 3S)     0.00022       1.65675
   440    H   21  S      Ryd( 2S)     0.00006       0.87352
   441    H   21  px     Ryd( 2p)     0.00012       2.39013
   442    H   21  py     Ryd( 2p)     0.00013       2.37202
   443    H   21  pz     Ryd( 2p)     0.00017       2.78343
 
   444    H   22  S      Val( 1S)     0.74893       0.02667
   445    H   22  S      Ryd( 3S)     0.00039       1.43858
   446    H   22  S      Ryd( 2S)     0.00009       1.08035
   447    H   22  px     Ryd( 2p)     0.00023       2.80268
   448    H   22  py     Ryd( 2p)     0.00016       2.47059
   449    H   22  pz     Ryd( 2p)     0.00009       2.38162

 WARNING:  Population inversion found on atom  C    4
           Population inversion found on atom  C    6
           Population inversion found on atom  H   13
           Population inversion found on atom  H   15
           Population inversion found on atom  H   21
           Population inversion found on atom  H   22


 Summary of Natural Population Analysis:                  
                                                          
                                       Natural Population 
                Natural  -----------------------------------------------
    Atom  No    Charge         Core      Valence    Rydberg      Total
 -----------------------------------------------------------------------
      C    1    0.18355      1.99915     3.79327    0.02403     5.81645
      C    2   -0.42252      1.99905     4.39218    0.03130     6.42252
     Br    3    0.13538     27.99921     6.85540    0.01002    34.86462
      C    4    0.60297      1.99943     3.36619    0.03141     5.39703
      O    5   -0.52596      1.99975     6.49925    0.02695     8.52596
      C    6   -0.20083      1.99906     4.17939    0.02238     6.20083
      C    7   -0.02617      1.99917     4.00855    0.01844     6.02617
      C    8   -0.23822      1.99919     4.22032    0.01871     6.23822
      C    9   -0.01939      1.99925     4.00298    0.01716     6.01939
      C   10   -0.22823      1.99920     4.21035    0.01867     6.22823
      C   11   -0.05321      1.99914     4.03587    0.01820     6.05321
      C   12   -0.72001      1.99936     4.70766    0.01299     6.72001
      H   13    0.25509      0.00000     0.74303    0.00189     0.74491
      H   14    0.26990      0.00000     0.72844    0.00166     0.73010
      H   15    0.24506      0.00000     0.75375    0.00119     0.75494
      H   16    0.25122      0.00000     0.74775    0.00103     0.74878
      H   17    0.24333      0.00000     0.75567    0.00100     0.75667
      H   18    0.25015      0.00000     0.74881    0.00104     0.74985
      H   19    0.23927      0.00000     0.75935    0.00138     0.76073
      H   20    0.24996      0.00000     0.74930    0.00074     0.75004
      H   21    0.25854      0.00000     0.74076    0.00070     0.74146
      H   22    0.25011      0.00000     0.74893    0.00096     0.74989
 =======================================================================
   * Total *    1.00000     49.99097    61.74719    0.26184   112.00000

                                 Natural Population      
 --------------------------------------------------------
   Core                      49.99097 ( 99.9819% of  50)
   Valence                   61.74719 ( 99.5922% of  62)
   Natural Minimal Basis    111.73816 ( 99.7662% of 112)
   Natural Rydberg Basis      0.26184 (  0.2338% of 112)
 --------------------------------------------------------

    Atom  No          Natural Electron Configuration
 ----------------------------------------------------------------------------
      C    1      [core]2S( 1.01)2p( 2.78)3p( 0.01)3d( 0.01)
      C    2      [core]2S( 1.11)2p( 3.28)3p( 0.01)3d( 0.01)
     Br    3      [core]4S( 1.90)4p( 4.96)4d( 0.01)
      C    4      [core]2S( 0.89)2p( 2.48)3p( 0.02)4S( 0.01)
      O    5      [core]2S( 1.69)2p( 4.81)3d( 0.02)
      C    6      [core]2S( 0.92)2p( 3.26)3p( 0.01)
      C    7      [core]2S( 0.99)2p( 3.02)3p( 0.01)3d( 0.01)
      C    8      [core]2S( 0.99)2p( 3.23)3p( 0.01)3d( 0.01)
      C    9      [core]2S( 1.00)2p( 3.00)3p( 0.01)3d( 0.01)
      C   10      [core]2S( 0.99)2p( 3.22)3p( 0.01)3d( 0.01)
      C   11      [core]2S( 0.98)2p( 3.05)3p( 0.01)3d( 0.01)
      C   12      [core]2S( 1.14)2p( 3.57)3d( 0.01)
      H   13            1S( 0.74)
      H   14            1S( 0.73)
      H   15            1S( 0.75)
      H   16            1S( 0.75)
      H   17            1S( 0.76)
      H   18            1S( 0.75)
      H   19            1S( 0.76)
      H   20            1S( 0.75)
      H   21            1S( 0.74)
      H   22            1S( 0.75)


 NATURAL BOND ORBITAL ANALYSIS:

                       Occupancies       Lewis Structure    Low   High
           Occ.    -------------------  -----------------   occ   occ
  Cycle   Thresh.   Lewis   Non-Lewis     CR  BD  3C  LP    (L)   (NL)   Dev
 =============================================================================
   1(1)    1.90   107.84983   4.15017     25  24   0   7     5      5    0.55
   2(2)    1.90   107.84983   4.15017     25  24   0   7     5      5    0.55
   3(1)    1.80   108.22776   3.77224     25  23   0   8     3      4    0.55
   4(2)    1.80   108.22776   3.77224     25  23   0   8     3      4    0.55
   5(1)    1.70   108.22776   3.77224     25  23   0   8     3      4    0.55
   6(2)    1.70   108.22776   3.77224     25  23   0   8     3      4    0.55
   7(1)    1.60   109.54769   2.45231     25  25   0   6     1      4    0.47
   8(2)    1.60   109.54769   2.45231     25  25   0   6     1      4    0.47
   9(1)    1.50   110.05087   1.94913     25  26   0   5     0      4    0.39
  10(2)    1.50   109.94053   2.05947     25  26   0   5     0      4    0.52
  11(3)    1.50   110.05087   1.94913     25  26   0   5     0      4    0.39
 -----------------------------------------------------------------------------

 Structure accepted: RESONANCE keyword permits strongly delocalized structure

 --------------------------------------------------------
   Core                     49.99100 ( 99.982% of  50)
   Valence Lewis            60.05987 ( 96.871% of  62)
  ==================       ============================
   Total Lewis             110.05087 ( 98.260% of 112)
  -----------------------------------------------------
   Valence non-Lewis         1.79715 (  1.605% of 112)
   Rydberg non-Lewis         0.15198 (  0.136% of 112)
  ==================       ============================
   Total non-Lewis           1.94913 (  1.740% of 112)
 --------------------------------------------------------


       (Occupancy)   Bond orbital/ Coefficients/ Hybrids
 ---------------------------------------------------------------------------------
     1. (1.98581) BD ( 1) C   1 - C   2  
                ( 48.40%)   0.6957* C   1 s( 33.29%)p 2.00( 66.53%)d 0.00(  0.16%)
                                                  f 0.00(  0.02%)
                                           -0.0000  0.5770  0.0074  0.0007  0.0003
                                           -0.6346  0.0052  0.0067 -0.0740  0.0005
                                           -0.0015  0.5069 -0.0006 -0.0010  0.0073
                                           -0.0017 -0.0350 -0.0039 -0.0047 -0.0005
                                            0.0154  0.0031  0.0050  0.0015 -0.0039
                                           -0.0035 -0.0017  0.0117  0.0015 -0.0068
                                           -0.0017
                ( 51.60%)   0.7184* C   2 s( 30.30%)p 2.30( 69.59%)d 0.00(  0.11%)
                                                  f 0.00(  0.00%)
                                            0.0001  0.5501  0.0205  0.0016  0.0003
                                            0.6785  0.0166  0.0046  0.0930  0.0071
                                            0.0024 -0.4759 -0.0036 -0.0031 -0.0014
                                            0.0035 -0.0292 -0.0052  0.0031 -0.0034
                                            0.0112  0.0062  0.0012  0.0007  0.0047
                                            0.0036 -0.0019  0.0011  0.0006  0.0024
                                            0.0016
     2. (1.98375) BD ( 1) C   1 - C   6  
                ( 47.98%)   0.6927* C   1 s( 37.66%)p 1.65( 62.07%)d 0.01(  0.26%)
                                                  f 0.00(  0.02%)
                                            0.0000  0.6136  0.0074  0.0023 -0.0006
                                            0.7468 -0.0108 -0.0076 -0.1188 -0.0010
                                            0.0020  0.2205  0.0018 -0.0007 -0.0123
                                           -0.0008  0.0276  0.0003 -0.0029 -0.0009
                                            0.0335  0.0053 -0.0219 -0.0003 -0.0046
                                           -0.0043  0.0003  0.0059 -0.0024  0.0098
                                           -0.0040
                ( 52.02%)   0.7213* C   6 s( 34.50%)p 1.90( 65.45%)d 0.00(  0.05%)
                                                  f 0.00(  0.00%)
                                           -0.0000  0.5873  0.0078  0.0025  0.0005
                                           -0.7842 -0.0025  0.0005  0.0892 -0.0006
                                           -0.0005 -0.1775  0.0009  0.0004 -0.0014
                                           -0.0035  0.0049  0.0065  0.0025 -0.0005
                                            0.0072  0.0128 -0.0114 -0.0076  0.0007
                                            0.0017  0.0003 -0.0017  0.0009 -0.0044
                                            0.0013
     3. (1.55529) BD ( 2) C   1 - C   6  
                ( 35.13%)   0.5927* C   1 s(  0.01%)p 1.00( 99.84%)d 0.00(  0.12%)
                                                  f 0.00(  0.03%)
                                           -0.0001  0.0048  0.0058 -0.0011  0.0002
                                            0.0801  0.0025  0.0009  0.9676 -0.0043
                                            0.0084  0.2360 -0.0041  0.0015  0.0282
                                            0.0065  0.0101  0.0001  0.0111  0.0017
                                            0.0110  0.0000  0.0059 -0.0002  0.0023
                                            0.0015  0.0027  0.0068  0.0020  0.0047
                                            0.0158
                ( 64.87%)   0.8054* C   6 s(  0.00%)p 1.00( 99.97%)d 0.00(  0.01%)
                                                  f 0.00(  0.02%)
                                           -0.0000  0.0056 -0.0006 -0.0005  0.0001
                                            0.0646  0.0018  0.0010  0.9727 -0.0070
                                            0.0015  0.2218 -0.0014  0.0011 -0.0095
                                           -0.0049 -0.0029 -0.0017 -0.0020 -0.0019
                                           -0.0026 -0.0015 -0.0006 -0.0008  0.0035
                                            0.0005  0.0053  0.0051 -0.0003  0.0025
                                            0.0093
     4. (1.97197) BD ( 1) C   1 - H  13  
                ( 62.77%)   0.7923* C   1 s( 28.97%)p 2.45( 70.91%)d 0.00(  0.10%)
                                                  f 0.00(  0.02%)
                                            0.0002 -0.5381  0.0117  0.0029 -0.0004
                                            0.1727  0.0024 -0.0007 -0.2061 -0.0026
                                            0.0000  0.7978  0.0168  0.0055 -0.0023
                                            0.0024 -0.0080 -0.0031  0.0065  0.0043
                                            0.0097  0.0028 -0.0266 -0.0064  0.0037
                                            0.0034 -0.0078  0.0098 -0.0034 -0.0002
                                           -0.0029
                ( 37.23%)   0.6102* H  13 s( 99.95%)p 0.00(  0.05%)
                                           -0.9997 -0.0033  0.0002 -0.0030  0.0058
                                           -0.0222
     5. (1.91794) BD ( 1) C   2 -Br   3  
                ( 50.05%)   0.7074* C   2 s( 15.40%)p 5.47( 84.28%)d 0.02(  0.32%)
                                                  f 0.00(  0.01%)
                                            0.0003 -0.3916  0.0179  0.0173 -0.0004
                                            0.3594  0.0048 -0.0153  0.8141  0.0067
                                           -0.0376  0.2204 -0.0196 -0.0135 -0.0273
                                            0.0025 -0.0028 -0.0006 -0.0369  0.0038
                                            0.0259 -0.0009  0.0194 -0.0014 -0.0053
                                           -0.0017 -0.0026 -0.0038  0.0029 -0.0051
                                           -0.0040
                ( 49.95%)   0.7068*Br   3 s( 10.02%)p 8.95( 89.70%)d 0.03(  0.27%)
                                                  f 0.00(  0.01%)
                                            0.0000  0.0000 -0.0003 -0.3156 -0.0235
                                           -0.0007 -0.0000  0.0004 -0.3344 -0.0110
                                           -0.0015 -0.0000  0.0007 -0.8461 -0.0312
                                           -0.0046  0.0000  0.0001 -0.2609 -0.0112
                                           -0.0029 -0.0001 -0.0282 -0.0007 -0.0017
                                           -0.0002 -0.0063  0.0012 -0.0011 -0.0003
                                           -0.0216  0.0010 -0.0020  0.0003  0.0310
                                            0.0001  0.0021  0.0000  0.0211  0.0001
                                            0.0007  0.0030  0.0015  0.0035  0.0037
                                           -0.0022  0.0054  0.0022
     6. (1.97514) BD ( 1) C   2 - C   4  
                ( 54.87%)   0.7407* C   2 s( 27.45%)p 2.64( 72.35%)d 0.01(  0.20%)
                                                  f 0.00(  0.01%)
                                            0.0001  0.5238 -0.0030  0.0056 -0.0001
                                           -0.6142  0.0074 -0.0066  0.5658 -0.0005
                                            0.0026 -0.1608  0.0089  0.0014 -0.0304
                                           -0.0066  0.0209 -0.0002 -0.0129 -0.0015
                                            0.0017 -0.0014 -0.0201 -0.0016  0.0054
                                            0.0047 -0.0027 -0.0010 -0.0001  0.0049
                                            0.0042
                ( 45.13%)   0.6718* C   4 s( 30.42%)p 2.29( 69.52%)d 0.00(  0.06%)
                                                  f 0.00(  0.01%)
                                            0.0002  0.5511 -0.0199 -0.0047  0.0001
                                            0.6124 -0.0086 -0.0033 -0.5514  0.0011
                                            0.0065  0.1261  0.0068 -0.0048 -0.0178
                                            0.0003  0.0080  0.0034 -0.0038 -0.0008
                                            0.0013  0.0010 -0.0124 -0.0010 -0.0021
                                           -0.0016  0.0012 -0.0010 -0.0043 -0.0031
                                           -0.0041
     7. (1.97713) BD ( 1) C   2 - H  14  
                ( 63.83%)   0.7989* C   2 s( 26.86%)p 2.72( 73.03%)d 0.00(  0.11%)
                                                  f 0.00(  0.00%)
                                           -0.0002  0.5182 -0.0019  0.0045 -0.0003
                                            0.1736 -0.0050  0.0002 -0.0540  0.0036
                                           -0.0067  0.8345 -0.0072  0.0257 -0.0017
                                            0.0004  0.0175  0.0022 -0.0036 -0.0017
                                           -0.0016 -0.0001  0.0255  0.0109  0.0034
                                            0.0016 -0.0000 -0.0007 -0.0015  0.0041
                                            0.0018
                ( 36.17%)   0.6014* H  14 s( 99.94%)p 0.00(  0.06%)
                                            0.9997  0.0038 -0.0000 -0.0028  0.0044
                                           -0.0234
     8. (1.99710) BD ( 1) C   4 - O   5  
                ( 34.81%)   0.5900* C   4 s( 32.78%)p 2.05( 67.14%)d 0.00(  0.07%)
                                                  f 0.00(  0.01%)
                                            0.0000 -0.5703 -0.0506  0.0019 -0.0008
                                            0.0173  0.0095  0.0023 -0.3834 -0.0295
                                           -0.0012  0.7223  0.0386 -0.0005 -0.0043
                                           -0.0056 -0.0018 -0.0026  0.0134 -0.0115
                                            0.0057 -0.0009 -0.0144  0.0068  0.0032
                                            0.0012 -0.0064 -0.0041  0.0011  0.0017
                                            0.0013
                ( 65.19%)   0.8074* O   5 s( 42.99%)p 1.31( 56.35%)d 0.01(  0.64%)
                                                  f 0.00(  0.01%)
                                           -0.0000 -0.6557 -0.0063  0.0003 -0.0004
                                            0.0245 -0.0007  0.0010  0.4082 -0.0107
                                           -0.0051 -0.6291  0.0185  0.0079 -0.0035
                                            0.0003  0.0003  0.0002  0.0609  0.0010
                                            0.0200  0.0001 -0.0479 -0.0007 -0.0037
                                           -0.0006  0.0099  0.0057 -0.0010 -0.0009
                                           -0.0016
     9. (1.98166) BD ( 2) C   4 - O   5  
                ( 32.56%)   0.5706* C   4 s(  0.05%)p99.99( 99.81%)d 2.52(  0.13%)
                                                  f 0.13(  0.01%)
                                           -0.0000  0.0227  0.0025  0.0000  0.0001
                                            0.5566 -0.0089  0.0068  0.7305 -0.0127
                                            0.0105  0.3925 -0.0084  0.0073  0.0107
                                            0.0040 -0.0159 -0.0043 -0.0155 -0.0037
                                           -0.0096 -0.0013 -0.0225 -0.0073  0.0002
                                           -0.0027  0.0017 -0.0008 -0.0040  0.0064
                                           -0.0008
                ( 67.44%)   0.8212* O   5 s(  0.07%)p99.99( 99.48%)d 6.07(  0.43%)
                                                  f 0.27(  0.02%)
                                            0.0000  0.0265  0.0001  0.0002 -0.0000
                                            0.5484 -0.0057  0.0011  0.7018 -0.0069
                                            0.0016  0.4489 -0.0052  0.0012 -0.0172
                                           -0.0002  0.0319 -0.0002  0.0231  0.0001
                                            0.0251 -0.0004  0.0423  0.0001  0.0098
                                            0.0056 -0.0002  0.0056 -0.0044 -0.0031
                                           -0.0022
    10. (1.98977) BD ( 1) C   4 - C  12  
                ( 49.69%)   0.7049* C   4 s( 36.92%)p 1.71( 63.03%)d 0.00(  0.04%)
                                                  f 0.00(  0.00%)
                                           -0.0001  0.6073 -0.0171  0.0049 -0.0003
                                           -0.5599  0.0002  0.0005  0.1115  0.0059
                                            0.0045  0.5516 -0.0065 -0.0059  0.0046
                                            0.0091 -0.0138  0.0061  0.0063  0.0023
                                            0.0055 -0.0034  0.0053 -0.0007 -0.0002
                                           -0.0056  0.0011  0.0038 -0.0004 -0.0018
                                            0.0002
                ( 50.31%)   0.7093* C  12 s( 26.58%)p 2.75( 73.12%)d 0.01(  0.28%)
                                                  f 0.00(  0.01%)
                                            0.0001  0.5155 -0.0001 -0.0071 -0.0000
                                            0.5721  0.0033 -0.0146 -0.1137  0.0015
                                            0.0046 -0.6251 -0.0044  0.0059 -0.0057
                                           -0.0027 -0.0449  0.0001  0.0136 -0.0038
                                            0.0217 -0.0006  0.0107  0.0020  0.0025
                                            0.0069 -0.0016 -0.0067  0.0054  0.0033
                                            0.0012
    11. (1.97661) BD ( 1) C   6 - C   7  
                ( 52.30%)   0.7232* C   6 s( 32.34%)p 2.09( 67.61%)d 0.00(  0.05%)
                                                  f 0.00(  0.00%)
                                           -0.0001  0.5686 -0.0040 -0.0014 -0.0002
                                            0.5688  0.0110 -0.0014  0.0926 -0.0006
                                            0.0003 -0.5864  0.0012  0.0015  0.0034
                                            0.0025 -0.0143 -0.0140 -0.0022 -0.0021
                                            0.0030  0.0046  0.0058  0.0049  0.0004
                                            0.0022  0.0013 -0.0039 -0.0010  0.0025
                                            0.0004
                ( 47.70%)   0.6907* C   7 s( 33.45%)p 1.98( 66.36%)d 0.01(  0.18%)
                                                  f 0.00(  0.02%)
                                            0.0000  0.5783 -0.0056 -0.0052 -0.0005
                                           -0.5643 -0.0195  0.0091 -0.0948  0.0008
                                            0.0011  0.5793  0.0019 -0.0088  0.0054
                                            0.0012 -0.0337 -0.0064 -0.0079 -0.0006
                                            0.0160  0.0018  0.0157  0.0018 -0.0004
                                           -0.0074 -0.0033  0.0098  0.0025 -0.0041
                                           -0.0020
    12. (1.97835) BD ( 1) C   6 - C  11  
                ( 52.10%)   0.7218* C   6 s( 33.14%)p 2.02( 66.82%)d 0.00(  0.04%)
                                                  f 0.00(  0.00%)
                                           -0.0000  0.5757 -0.0046 -0.0015 -0.0002
                                            0.2373  0.0085 -0.0003 -0.1920 -0.0011
                                            0.0003  0.7582  0.0025  0.0019 -0.0006
                                           -0.0014  0.0059  0.0067 -0.0037 -0.0056
                                           -0.0031 -0.0011  0.0099  0.0129  0.0029
                                            0.0031 -0.0026  0.0011 -0.0016  0.0002
                                           -0.0007
                ( 47.90%)   0.6921* C  11 s( 33.29%)p 2.00( 66.50%)d 0.01(  0.19%)
                                                  f 0.00(  0.02%)
                                            0.0000  0.5769 -0.0065 -0.0054 -0.0004
                                           -0.2679 -0.0150  0.0039  0.1852  0.0026
                                           -0.0029 -0.7473 -0.0077  0.0118 -0.0044
                                           -0.0006  0.0168  0.0038 -0.0163 -0.0021
                                            0.0021 -0.0008  0.0356  0.0049 -0.0077
                                           -0.0076  0.0073 -0.0041  0.0036  0.0003
                                            0.0015
    13. (1.98526) BD ( 1) C   7 - C   8  
                ( 50.09%)   0.7078* C   7 s( 36.48%)p 1.74( 63.37%)d 0.00(  0.14%)
                                                  f 0.00(  0.01%)
                                            0.0000  0.6038  0.0138  0.0057 -0.0002
                                            0.7781  0.0237 -0.0012 -0.0804  0.0032
                                            0.0002  0.1442 -0.0202 -0.0014 -0.0085
                                           -0.0007  0.0250 -0.0007 -0.0043  0.0017
                                            0.0231  0.0065 -0.0074 -0.0076 -0.0009
                                           -0.0040  0.0003  0.0010 -0.0013  0.0089
                                           -0.0020
                ( 49.91%)   0.7065* C   8 s( 35.45%)p 1.82( 64.40%)d 0.00(  0.14%)
                                                  f 0.00(  0.01%)
                                            0.0000  0.5953  0.0067  0.0030 -0.0004
                                           -0.7743 -0.0157  0.0065  0.0907  0.0075
                                           -0.0007 -0.1872 -0.0292  0.0012 -0.0048
                                           -0.0019  0.0032  0.0051 -0.0012 -0.0002
                                            0.0321  0.0060 -0.0163 -0.0038  0.0032
                                            0.0020 -0.0001 -0.0047  0.0020 -0.0071
                                            0.0028
    14. (1.62937) BD ( 2) C   7 - C   8  
                ( 44.53%)   0.6673* C   7 s(  0.00%)p 1.00( 99.91%)d 0.00(  0.06%)
                                                  f 0.00(  0.03%)
                                            0.0000 -0.0002  0.0003 -0.0004  0.0000
                                            0.0603 -0.0010  0.0012  0.9733 -0.0111
                                            0.0205  0.2182 -0.0024  0.0046  0.0084
                                            0.0115  0.0033  0.0026  0.0164  0.0008
                                            0.0049  0.0016  0.0066  0.0005  0.0045
                                           -0.0001  0.0067  0.0063 -0.0025  0.0020
                                            0.0132
                ( 55.47%)   0.7448* C   8 s(  0.00%)p 1.00( 99.92%)d 0.00(  0.05%)
                                                  f 0.00(  0.03%)
                                            0.0000 -0.0001  0.0003 -0.0003  0.0000
                                            0.0611 -0.0008  0.0012  0.9732 -0.0128
                                            0.0188  0.2187 -0.0030  0.0042 -0.0155
                                           -0.0072 -0.0028 -0.0015  0.0119  0.0015
                                            0.0008 -0.0006  0.0049  0.0005  0.0048
                                            0.0011  0.0071  0.0069  0.0011  0.0029
                                            0.0122
    15. (1.97728) BD ( 1) C   7 - H  15  
                ( 62.19%)   0.7886* C   7 s( 30.02%)p 2.33( 69.90%)d 0.00(  0.07%)
                                                  f 0.00(  0.02%)
                                            0.0003 -0.5478  0.0060  0.0013 -0.0007
                                            0.2626 -0.0122 -0.0009 -0.1891  0.0047
                                            0.0007  0.7706 -0.0172 -0.0025  0.0031
                                            0.0007 -0.0174 -0.0036  0.0048  0.0035
                                            0.0069  0.0015 -0.0126 -0.0091  0.0067
                                            0.0016 -0.0074  0.0073 -0.0027  0.0030
                                           -0.0029
                ( 37.81%)   0.6149* H  15 s( 99.95%)p 0.00(  0.05%)
                                           -0.9997 -0.0012 -0.0004 -0.0072  0.0052
                                           -0.0212
    16. (1.98505) BD ( 1) C   8 - C   9  
                ( 50.29%)   0.7092* C   8 s( 34.53%)p 1.89( 65.31%)d 0.00(  0.14%)
                                                  f 0.00(  0.01%)
                                            0.0000  0.5876  0.0067  0.0011  0.0002
                                            0.2483  0.0313 -0.0028 -0.1832 -0.0041
                                            0.0016  0.7462  0.0094 -0.0062 -0.0011
                                           -0.0017  0.0041  0.0074 -0.0141 -0.0024
                                           -0.0006 -0.0002  0.0339  0.0047  0.0045
                                            0.0057 -0.0050  0.0040 -0.0031  0.0008
                                           -0.0015
                ( 49.71%)   0.7050* C   9 s( 35.58%)p 1.81( 64.27%)d 0.00(  0.13%)
                                                  f 0.00(  0.01%)
                                            0.0000  0.5965  0.0061  0.0016 -0.0001
                                           -0.2140  0.0187 -0.0015  0.1827  0.0044
                                           -0.0012 -0.7500 -0.0246  0.0056 -0.0062
                                            0.0000  0.0239  0.0008 -0.0120 -0.0025
                                            0.0045 -0.0019  0.0224  0.0071 -0.0078
                                           -0.0027  0.0058 -0.0014  0.0015 -0.0004
                                            0.0007
    17. (1.97713) BD ( 1) C   8 - H  16  
                ( 62.56%)   0.7910* C   8 s( 29.96%)p 2.33( 69.95%)d 0.00(  0.08%)
                                                  f 0.00(  0.02%)
                                           -0.0004  0.5473 -0.0106 -0.0038  0.0002
                                            0.5760 -0.0152 -0.0057  0.0983 -0.0025
                                           -0.0006 -0.5979  0.0152  0.0043  0.0059
                                            0.0009 -0.0256 -0.0057  0.0003 -0.0012
                                           -0.0012  0.0036  0.0043  0.0017 -0.0029
                                            0.0033  0.0046 -0.0076 -0.0023  0.0076
                                            0.0008
                ( 37.44%)   0.6119* H  16 s( 99.95%)p 0.00(  0.05%)
                                            0.9998 -0.0003  0.0012 -0.0147 -0.0027
                                            0.0162
    18. (1.98500) BD ( 1) C   9 - C  10  
                ( 49.71%)   0.7051* C   9 s( 35.38%)p 1.82( 64.48%)d 0.00(  0.13%)
                                                  f 0.00(  0.01%)
                                            0.0000  0.5948  0.0056  0.0014 -0.0001
                                           -0.5265  0.0065  0.0014 -0.1017 -0.0071
                                            0.0013  0.5969  0.0296 -0.0060  0.0042
                                            0.0014 -0.0294 -0.0062 -0.0035 -0.0013
                                            0.0189  0.0000  0.0024  0.0042  0.0020
                                           -0.0070 -0.0030  0.0054  0.0026 -0.0027
                                           -0.0010
                ( 50.29%)   0.7091* C  10 s( 34.40%)p 1.90( 65.45%)d 0.00(  0.15%)
                                                  f 0.00(  0.01%)
                                            0.0000  0.5865  0.0067  0.0011  0.0003
                                            0.5537  0.0319 -0.0055  0.0969 -0.0029
                                           -0.0008 -0.5809  0.0039  0.0046  0.0051
                                            0.0013 -0.0268 -0.0079 -0.0090  0.0001
                                            0.0070  0.0039  0.0223 -0.0013  0.0010
                                            0.0042  0.0020 -0.0073 -0.0020  0.0050
                                            0.0011
    19. (1.97919) BD ( 1) C   9 - H  17  
                ( 62.12%)   0.7882* C   9 s( 28.99%)p 2.45( 70.91%)d 0.00(  0.08%)
                                                  f 0.00(  0.02%)
                                           -0.0003  0.5383 -0.0092 -0.0030  0.0002
                                            0.8191 -0.0228 -0.0039 -0.0898  0.0025
                                            0.0004  0.1718 -0.0049 -0.0008 -0.0043
                                           -0.0012  0.0114  0.0022  0.0041 -0.0003
                                            0.0148  0.0054 -0.0204 -0.0029  0.0005
                                            0.0012 -0.0014  0.0019 -0.0041  0.0113
                                           -0.0029
                ( 37.88%)   0.6155* H  17 s( 99.95%)p 0.00(  0.05%)
                                            0.9997  0.0002  0.0007 -0.0218  0.0023
                                           -0.0044
    20. (1.98489) BD ( 1) C  10 - C  11  
                ( 49.77%)   0.7055* C  10 s( 35.71%)p 1.80( 64.14%)d 0.00(  0.14%)
                                                  f 0.00(  0.01%)
                                            0.0000  0.5975  0.0075  0.0031 -0.0004
                                           -0.7848 -0.0277  0.0067  0.0796 -0.0028
                                           -0.0007 -0.1339  0.0203  0.0013 -0.0079
                                           -0.0011  0.0193  0.0009 -0.0038  0.0004
                                            0.0274  0.0073 -0.0101 -0.0055  0.0008
                                            0.0045 -0.0001 -0.0015  0.0010 -0.0083
                                            0.0021
                ( 50.23%)   0.7088* C  11 s( 36.63%)p 1.73( 63.22%)d 0.00(  0.14%)
                                                  f 0.00(  0.01%)
                                            0.0000  0.6050  0.0148  0.0050 -0.0002
                                            0.7719  0.0129 -0.0022 -0.0865 -0.0068
                                           -0.0002  0.1673  0.0263  0.0012 -0.0030
                                           -0.0021 -0.0042  0.0073  0.0002  0.0005
                                            0.0314  0.0036 -0.0181 -0.0044 -0.0022
                                           -0.0015 -0.0007  0.0048 -0.0022  0.0074
                                           -0.0029
    21. (1.65517) BD ( 2) C  10 - C  11  
                ( 54.38%)   0.7374* C  10 s(  0.00%)p 1.00( 99.93%)d 0.00(  0.05%)
                                                  f 0.00(  0.03%)
                                            0.0000 -0.0001 -0.0001  0.0002  0.0000
                                            0.0610 -0.0008  0.0011  0.9728 -0.0129
                                            0.0188  0.2204 -0.0029  0.0042 -0.0087
                                           -0.0064 -0.0030 -0.0017 -0.0155 -0.0037
                                           -0.0049 -0.0017 -0.0065 -0.0016  0.0042
                                            0.0000  0.0062  0.0064 -0.0018  0.0022
                                            0.0132
                ( 45.62%)   0.6754* C  11 s(  0.00%)p 1.00( 99.92%)d 0.00(  0.05%)
                                                  f 0.00(  0.03%)
                                            0.0000  0.0011  0.0001 -0.0002  0.0000
                                            0.0604 -0.0008  0.0009  0.9728 -0.0105
                                            0.0209  0.2204 -0.0025  0.0046  0.0162
                                            0.0102  0.0028  0.0026 -0.0109  0.0027
                                           -0.0006  0.0019 -0.0046  0.0013  0.0056
                                            0.0011  0.0082  0.0072  0.0006  0.0027
                                            0.0118
    22. (1.97739) BD ( 1) C  10 - H  18  
                ( 62.51%)   0.7906* C  10 s( 29.84%)p 2.35( 70.07%)d 0.00(  0.07%)
                                                  f 0.00(  0.02%)
                                           -0.0003  0.5461 -0.0112 -0.0038  0.0001
                                            0.2642 -0.0072 -0.0029 -0.1911  0.0050
                                            0.0013  0.7706 -0.0200 -0.0056 -0.0016
                                           -0.0011  0.0130  0.0039 -0.0060 -0.0027
                                           -0.0113  0.0010  0.0189  0.0051  0.0058
                                            0.0025 -0.0070  0.0071 -0.0029  0.0026
                                           -0.0028
                ( 37.49%)   0.6123* H  18 s( 99.95%)p 0.00(  0.05%)
                                            0.9998 -0.0003  0.0011 -0.0062  0.0050
                                           -0.0204
    23. (1.97720) BD ( 1) C  11 - H  19  
                ( 61.93%)   0.7869* C  11 s( 30.02%)p 2.33( 69.89%)d 0.00(  0.07%)
                                                  f 0.00(  0.02%)
                                            0.0003 -0.5479  0.0056  0.0006 -0.0006
                                            0.5712 -0.0168 -0.0015  0.1015 -0.0009
                                           -0.0006 -0.6016  0.0091  0.0022 -0.0048
                                           -0.0019  0.0233  0.0086 -0.0018  0.0019
                                           -0.0040 -0.0013  0.0029 -0.0051 -0.0035
                                            0.0037  0.0053 -0.0081 -0.0025  0.0075
                                            0.0010
                ( 38.07%)   0.6170* H  19 s( 99.95%)p 0.00(  0.05%)
                                           -0.9997 -0.0014 -0.0004 -0.0154 -0.0031
                                            0.0173
    24. (1.97114) BD ( 1) C  12 - H  20  
                ( 62.12%)   0.7882* C  12 s( 24.37%)p 3.10( 75.47%)d 0.01(  0.15%)
                                                  f 0.00(  0.01%)
                                            0.0002 -0.4937 -0.0021  0.0004 -0.0002
                                            0.2940  0.0073  0.0053  0.7692 -0.0043
                                            0.0004 -0.2766 -0.0037 -0.0012 -0.0101
                                           -0.0041  0.0021  0.0019  0.0137  0.0019
                                            0.0320 -0.0009  0.0136  0.0019  0.0014
                                           -0.0022 -0.0013  0.0021 -0.0062 -0.0023
                                           -0.0032
                ( 37.88%)   0.6154* H  20 s( 99.97%)p 0.00(  0.03%)
                                           -0.9999 -0.0007  0.0000 -0.0064 -0.0144
                                            0.0069
    25. (1.95975) BD ( 1) C  12 - H  21  
                ( 62.33%)   0.7895* C  12 s( 23.55%)p 3.24( 76.28%)d 0.01(  0.16%)
                                                  f 0.00(  0.01%)
                                           -0.0002  0.4853 -0.0006  0.0015  0.0001
                                            0.3799 -0.0087 -0.0003  0.4077  0.0023
                                            0.0034  0.6725  0.0029  0.0031  0.0193
                                           -0.0003  0.0280  0.0003  0.0173  0.0037
                                            0.0087 -0.0029  0.0066  0.0027  0.0012
                                            0.0025  0.0037 -0.0021  0.0046  0.0023
                                            0.0036
                ( 37.67%)   0.6137* H  21 s( 99.97%)p 0.00(  0.03%)
                                            0.9999  0.0006 -0.0001 -0.0060 -0.0077
                                           -0.0136
    26. (1.98545) BD ( 1) C  12 - H  22  
                ( 62.39%)   0.7898* C  12 s( 25.44%)p 2.93( 74.43%)d 0.00(  0.12%)
                                                  f 0.00(  0.01%)
                                            0.0001 -0.5044 -0.0001 -0.0052  0.0002
                                            0.6628  0.0010  0.0054 -0.4769  0.0034
                                           -0.0027  0.2785 -0.0071 -0.0001  0.0235
                                            0.0031 -0.0183 -0.0016  0.0130  0.0024
                                           -0.0046 -0.0015  0.0081  0.0003 -0.0016
                                           -0.0033 -0.0008  0.0023 -0.0064 -0.0024
                                           -0.0053
                ( 37.61%)   0.6133* H  22 s( 99.96%)p 0.00(  0.04%)
                                           -0.9998 -0.0010 -0.0001 -0.0152  0.0104
                                           -0.0036
    27. (1.99916) CR ( 1) C   1           s(100.00%)p 0.00(  0.00%)
                                            1.0000  0.0001 -0.0000 -0.0000  0.0000
                                           -0.0001  0.0000  0.0000  0.0002  0.0000
                                            0.0000 -0.0002 -0.0000 -0.0000  0.0000
                                            0.0000  0.0000  0.0000 -0.0000 -0.0000
                                           -0.0000 -0.0000  0.0000  0.0000 -0.0000
                                           -0.0000  0.0000 -0.0000  0.0000  0.0000
                                            0.0000
    28. (1.99905) CR ( 1) C   2           s(100.00%)p 0.00(  0.00%)
                                            1.0000  0.0001 -0.0000 -0.0000  0.0000
                                           -0.0001 -0.0000  0.0000 -0.0003 -0.0000
                                            0.0000  0.0001  0.0000  0.0000  0.0000
                                           -0.0000  0.0000  0.0000  0.0000 -0.0000
                                           -0.0000 -0.0000 -0.0000  0.0000  0.0000
                                            0.0000  0.0000  0.0000 -0.0000  0.0000
                                            0.0000
    29. (2.00000) CR ( 1)Br   3           s(100.00%)
                                            1.0000 -0.0000  0.0000  0.0000  0.0000
                                            0.0000 -0.0000 -0.0000  0.0000  0.0000
                                            0.0000 -0.0000 -0.0000  0.0000  0.0000
                                            0.0000  0.0000  0.0000  0.0000  0.0000
                                            0.0000 -0.0000  0.0000  0.0000  0.0000
                                            0.0000  0.0000 -0.0000  0.0000  0.0000
                                            0.0000 -0.0000  0.0000 -0.0000 -0.0000
                                            0.0000 -0.0000 -0.0000 -0.0000 -0.0000
                                           -0.0000 -0.0000 -0.0000 -0.0000 -0.0000
                                            0.0000 -0.0000 -0.0000
    30. (2.00000) CR ( 2)Br   3           s(100.00%)
                                           -0.0000  1.0000  0.0000  0.0000  0.0000
                                            0.0000  0.0000 -0.0000  0.0000  0.0000
                                            0.0000  0.0000 -0.0000  0.0000  0.0000
                                            0.0000 -0.0000 -0.0000 -0.0000  0.0000
                                            0.0000  0.0000  0.0000  0.0000  0.0000
                                            0.0000  0.0000 -0.0000  0.0000  0.0000
                                            0.0000 -0.0000  0.0000 -0.0000 -0.0000
                                           -0.0000 -0.0000 -0.0000 -0.0000  0.0000
                                           -0.0000 -0.0000 -0.0000 -0.0000 -0.0000
                                            0.0000 -0.0000 -0.0000
    31. (1.99984) CR ( 3)Br   3           s(100.00%)p 0.00(  0.00%)
                                            0.0000  0.0000  1.0000  0.0000 -0.0000
                                           -0.0000 -0.0000  0.0000 -0.0002 -0.0000
                                           -0.0000 -0.0000  0.0000 -0.0003 -0.0000
                                           -0.0000  0.0000  0.0000  0.0000 -0.0000
                                           -0.0000 -0.0000 -0.0000 -0.0000 -0.0000
                                           -0.0000 -0.0000  0.0000 -0.0000 -0.0000
                                           -0.0000  0.0000 -0.0000  0.0000  0.0000
                                            0.0000  0.0000  0.0000  0.0000 -0.0000
                                            0.0000  0.0000  0.0000  0.0000  0.0000
                                           -0.0000  0.0000  0.0000
    32. (2.00000) CR ( 4)Br   3           s(  0.00%)p 1.00(100.00%)
                                           -0.0000  0.0000 -0.0000  0.0000 -0.0000
                                           -0.0000  1.0000  0.0000 -0.0000  0.0000
                                            0.0000 -0.0000  0.0000 -0.0000 -0.0000
                                           -0.0000  0.0000  0.0000  0.0000 -0.0000
                                           -0.0000  0.0000 -0.0000  0.0000  0.0000
                                           -0.0000 -0.0000  0.0000 -0.0000 -0.0000
                                           -0.0000 -0.0000 -0.0000  0.0000  0.0000
                                            0.0000  0.0000  0.0000  0.0000 -0.0000
                                           -0.0000 -0.0000  0.0000  0.0000 -0.0000
                                           -0.0000  0.0000 -0.0000
    33. (1.99997) CR ( 5)Br   3           s(  0.00%)p 1.00(100.00%)
                                           -0.0000 -0.0000  0.0000  0.0001  0.0000
                                            0.0000  0.0000  1.0000  0.0003  0.0000
                                            0.0000  0.0000 -0.0000  0.0003  0.0000
                                            0.0000 -0.0000 -0.0000 -0.0001  0.0000
                                            0.0000  0.0000  0.0000  0.0000  0.0000
                                            0.0000  0.0000 -0.0000  0.0000  0.0000
                                            0.0000 -0.0000  0.0000 -0.0000 -0.0000
                                           -0.0000 -0.0000 -0.0000 -0.0000  0.0000
                                           -0.0000 -0.0000 -0.0000 -0.0000 -0.0000
                                            0.0000 -0.0000 -0.0000
    34. (2.00000) CR ( 6)Br   3           s(  0.00%)p 1.00(100.00%)
                                           -0.0000  0.0000 -0.0000  0.0000 -0.0000
                                           -0.0000 -0.0000  0.0000 -0.0000 -0.0000
                                           -0.0000  1.0000  0.0000 -0.0000 -0.0000
                                           -0.0000  0.0000  0.0000  0.0000 -0.0000
                                           -0.0000 -0.0000 -0.0000 -0.0000 -0.0000
                                           -0.0000 -0.0000  0.0000 -0.0000 -0.0000
                                           -0.0000 -0.0000 -0.0000  0.0000  0.0000
                                            0.0000  0.0000  0.0000  0.0000 -0.0000
                                            0.0000 -0.0000  0.0000  0.0000  0.0000
                                            0.0000  0.0000  0.0000
    35. (1.99990) CR ( 7)Br   3           s(  0.00%)p 1.00(100.00%)
                                           -0.0000 -0.0000  0.0000  0.0001  0.0000
                                            0.0000  0.0000 -0.0000  0.0004  0.0000
                                            0.0000  0.0000  1.0000  0.0006  0.0000
                                            0.0000 -0.0000 -0.0000 -0.0001  0.0000
                                            0.0000  0.0000  0.0000  0.0000  0.0000
                                            0.0000  0.0000 -0.0000  0.0000  0.0000
                                            0.0000 -0.0000  0.0000 -0.0000 -0.0000
                                           -0.0000 -0.0000 -0.0000 -0.0000  0.0000
                                           -0.0000 -0.0000 -0.0000 -0.0000 -0.0000
                                            0.0000 -0.0000 -0.0000
    36. (2.00000) CR ( 8)Br   3           s(  0.00%)p 1.00(100.00%)
                                            0.0000 -0.0000  0.0000  0.0000  0.0000
                                            0.0000  0.0000 -0.0000  0.0000  0.0000
                                           -0.0000  0.0000 -0.0000  0.0000  0.0000
                                            0.0000  1.0000 -0.0000 -0.0000  0.0000
                                            0.0000  0.0000  0.0000  0.0000  0.0000
                                            0.0000 -0.0000  0.0000  0.0000  0.0000
                                           -0.0000  0.0000  0.0000 -0.0000 -0.0000
                                            0.0000 -0.0000  0.0000 -0.0000  0.0000
                                            0.0000  0.0000 -0.0000 -0.0000  0.0000
                                           -0.0000 -0.0000 -0.0000
    37. (1.99998) CR ( 9)Br   3           s(  0.00%)p 1.00(100.00%)
                                            0.0000 -0.0000  0.0000 -0.0000  0.0000
                                            0.0000  0.0000 -0.0000 -0.0000  0.0000
                                            0.0000  0.0000 -0.0000  0.0001  0.0000
                                            0.0000 -0.0000  1.0000 -0.0000  0.0000
                                            0.0000  0.0000  0.0000  0.0000  0.0000
                                            0.0000  0.0000  0.0000  0.0000  0.0000
                                            0.0000 -0.0000  0.0000 -0.0000 -0.0000
                                            0.0000 -0.0000  0.0000 -0.0000  0.0000
                                           -0.0000  0.0000 -0.0000 -0.0000 -0.0000
                                           -0.0000 -0.0000 -0.0000
    38. (1.99987) CR (10)Br   3           s(  0.00%)p 0.00(  0.00%)d 1.00(100.00%)
                                           -0.0000  0.0000 -0.0000  0.0000 -0.0000
                                           -0.0000  0.0000  0.0000  0.0001 -0.0000
                                           -0.0000 -0.0000  0.0000 -0.0001 -0.0000
                                           -0.0000  0.0000  0.0000  0.0000 -0.0000
                                           -0.0000  1.0000 -0.0000 -0.0000 -0.0000
                                           -0.0000 -0.0000 -0.0000 -0.0000 -0.0000
                                           -0.0000  0.0000 -0.0000 -0.0000  0.0000
                                           -0.0000 -0.0000 -0.0000  0.0000 -0.0000
                                            0.0000  0.0000 -0.0000  0.0000  0.0000
                                            0.0000  0.0000  0.0000
    39. (1.99997) CR (11)Br   3           s(  0.00%)p 0.00(  0.00%)d 1.00(100.00%)
                                            0.0000  0.0000 -0.0000 -0.0000 -0.0000
                                           -0.0000 -0.0000  0.0000 -0.0001 -0.0000
                                           -0.0000 -0.0000  0.0000 -0.0002 -0.0000
                                           -0.0000  0.0000  0.0000  0.0001 -0.0000
                                           -0.0000 -0.0000 -0.0000 -0.0000 -0.0000
                                            1.0000 -0.0000  0.0000 -0.0000 -0.0000
                                           -0.0000  0.0000 -0.0000  0.0000  0.0000
                                            0.0000  0.0000 -0.0000  0.0000 -0.0000
                                            0.0000  0.0000  0.0000  0.0000  0.0000
                                            0.0000  0.0000  0.0000
    40. (1.99989) CR (12)Br   3           s(  0.00%)p 0.00(  0.00%)d 1.00(100.00%)
                                            0.0000  0.0000 -0.0000 -0.0000 -0.0000
                                           -0.0000 -0.0000  0.0000 -0.0003 -0.0000
                                           -0.0000 -0.0000  0.0000 -0.0003 -0.0000
                                           -0.0000  0.0000  0.0000  0.0002 -0.0000
                                           -0.0000 -0.0000 -0.0000 -0.0000 -0.0000
                                           -0.0000 -0.0000  0.0000 -0.0000  1.0000
                                           -0.0000  0.0000 -0.0000  0.0000  0.0000
                                            0.0000  0.0000  0.0000  0.0000 -0.0000
                                            0.0000 -0.0000  0.0000  0.0000  0.0000
                                           -0.0000  0.0000  0.0000
    41. (1.99984) CR (13)Br   3           s(  0.00%)p 0.00(  0.00%)d 1.00(100.00%)
                                           -0.0000 -0.0000  0.0000  0.0000  0.0000
                                            0.0000  0.0000 -0.0000  0.0004  0.0000
                                           -0.0000  0.0000 -0.0000  0.0002  0.0000
                                            0.0000 -0.0000 -0.0000 -0.0001  0.0000
                                            0.0000 -0.0000  0.0000 -0.0000  0.0000
                                            0.0000  0.0000 -0.0000  0.0000  0.0000
                                            0.0000 -0.0000  0.0000  1.0000 -0.0000
                                           -0.0000 -0.0000 -0.0000 -0.0000  0.0000
                                           -0.0000 -0.0000 -0.0000 -0.0000 -0.0000
                                            0.0000 -0.0000  0.0000
    42. (1.99994) CR (14)Br   3           s(  0.00%)p 0.00(  0.00%)d 1.00(100.00%)
                                           -0.0000 -0.0000  0.0000 -0.0000  0.0000
                                            0.0000  0.0000 -0.0000  0.0000 -0.0000
                                           -0.0000  0.0000 -0.0000 -0.0000  0.0000
                                            0.0000  0.0000  0.0000  0.0000 -0.0000
                                            0.0000 -0.0000  0.0000 -0.0000 -0.0000
                                           -0.0000  0.0000 -0.0000 -0.0000  0.0000
                                            0.0000 -0.0000  0.0000 -0.0000 -0.0000
                                           -0.0000 -0.0000  1.0000 -0.0000 -0.0000
                                           -0.0000 -0.0000 -0.0000  0.0000 -0.0000
                                            0.0000 -0.0000  0.0000
    43. (1.99943) CR ( 1) C   4           s(100.00%)p 0.00(  0.00%)
                                            1.0000 -0.0000  0.0000  0.0000 -0.0000
                                           -0.0001  0.0000  0.0000  0.0001  0.0000
                                           -0.0000  0.0000 -0.0000  0.0000  0.0000
                                            0.0000 -0.0000  0.0000  0.0000  0.0000
                                           -0.0000 -0.0000  0.0000 -0.0000  0.0000
                                           -0.0000  0.0000  0.0000  0.0000  0.0000
                                            0.0000
    44. (1.99975) CR ( 1) O   5           s(100.00%)p 0.00(  0.00%)
                                            1.0000  0.0003 -0.0000  0.0000 -0.0000
                                            0.0000  0.0000 -0.0000  0.0001 -0.0000
                                            0.0000 -0.0003  0.0000 -0.0000 -0.0000
                                            0.0000  0.0000  0.0000  0.0000  0.0000
                                            0.0000 -0.0000 -0.0000 -0.0000 -0.0000
                                           -0.0000  0.0000  0.0000 -0.0000 -0.0000
                                           -0.0000
    45. (1.99906) CR ( 1) C   6           s(100.00%)
                                            1.0000  0.0001 -0.0000 -0.0000 -0.0000
                                            0.0001  0.0000 -0.0000  0.0000 -0.0000
                                            0.0000 -0.0001  0.0000  0.0000  0.0000
                                            0.0000 -0.0000 -0.0000 -0.0000 -0.0000
                                            0.0000  0.0000  0.0000  0.0000  0.0000
                                            0.0000  0.0000 -0.0000 -0.0000  0.0000
                                            0.0000
    46. (1.99917) CR ( 1) C   7           s(100.00%)p 0.00(  0.00%)
                                            1.0000  0.0001 -0.0000 -0.0000  0.0000
                                           -0.0001  0.0000 -0.0000  0.0001 -0.0000
                                           -0.0000 -0.0003  0.0000  0.0000 -0.0000
                                           -0.0000  0.0000  0.0000 -0.0000 -0.0000
                                           -0.0000 -0.0000  0.0000  0.0000 -0.0000
                                            0.0000  0.0000 -0.0000  0.0000 -0.0000
                                            0.0000
    47. (1.99920) CR ( 1) C   8           s(100.00%)p 0.00(  0.00%)
                                            1.0000  0.0002 -0.0000 -0.0000  0.0000
                                            0.0002 -0.0000 -0.0000  0.0000 -0.0000
                                           -0.0000 -0.0002  0.0000  0.0000  0.0000
                                            0.0000 -0.0000 -0.0000  0.0000 -0.0000
                                           -0.0000  0.0000  0.0000  0.0000 -0.0000
                                            0.0000  0.0000 -0.0000 -0.0000  0.0000
                                            0.0000
    48. (1.99925) CR ( 1) C   9           s(100.00%)p 0.00(  0.00%)
                                            1.0000  0.0001 -0.0000 -0.0000  0.0000
                                            0.0002 -0.0000 -0.0000 -0.0000  0.0000
                                            0.0000  0.0001 -0.0000 -0.0000 -0.0000
                                           -0.0000  0.0000  0.0000  0.0000 -0.0000
                                            0.0000  0.0000 -0.0000 -0.0000  0.0000
                                            0.0000 -0.0000  0.0000 -0.0000  0.0000
                                           -0.0000
    49. (1.99921) CR ( 1) C  10           s(100.00%)p 0.00(  0.00%)
                                            1.0000  0.0001 -0.0000 -0.0000  0.0000
                                            0.0001 -0.0000 -0.0000 -0.0001  0.0000
                                            0.0000  0.0003 -0.0000 -0.0000 -0.0000
                                           -0.0000  0.0000  0.0000 -0.0000 -0.0000
                                           -0.0000 -0.0000  0.0000  0.0000  0.0000
                                            0.0000 -0.0000  0.0000 -0.0000  0.0000
                                           -0.0000
    50. (1.99914) CR ( 1) C  11           s(100.00%)p 0.00(  0.00%)
                                            1.0000  0.0001 -0.0000 -0.0000  0.0000
                                           -0.0002  0.0000  0.0000 -0.0000  0.0000
                                            0.0000  0.0002 -0.0000 -0.0000  0.0000
                                            0.0000 -0.0000 -0.0000  0.0000 -0.0000
                                            0.0000  0.0000 -0.0000  0.0000  0.0000
                                           -0.0000 -0.0000  0.0000  0.0000 -0.0000
                                           -0.0000
    51. (1.99936) CR ( 1) C  12           s(100.00%)p 0.00(  0.00%)
                                            1.0000  0.0002  0.0000  0.0000  0.0000
                                           -0.0001 -0.0000 -0.0000  0.0000  0.0000
                                            0.0000  0.0002  0.0000  0.0000  0.0000
                                            0.0000  0.0000 -0.0000 -0.0000  0.0000
                                           -0.0000 -0.0000 -0.0000 -0.0000 -0.0000
                                            0.0000  0.0000 -0.0000  0.0000  0.0000
                                            0.0000
    52. (1.99637) LP ( 1)Br   3           s( 88.20%)p 0.13( 11.79%)d 0.00(  0.00%)
                                                  f 0.00(  0.00%)
                                           -0.0000 -0.0000 -0.0001  0.9391 -0.0041
                                           -0.0001 -0.0000  0.0000 -0.1015 -0.0035
                                           -0.0005 -0.0000  0.0001 -0.2406 -0.0096
                                           -0.0012 -0.0000  0.0000 -0.2228 -0.0016
                                            0.0000 -0.0000 -0.0028 -0.0005 -0.0003
                                           -0.0000 -0.0019 -0.0001  0.0000 -0.0000
                                           -0.0040 -0.0004 -0.0000  0.0000  0.0034
                                            0.0007  0.0004  0.0000  0.0017  0.0006
                                            0.0002  0.0009  0.0003  0.0001  0.0006
                                           -0.0008  0.0008  0.0002
    53. (1.97338) LP ( 2)Br   3           s(  1.15%)p85.93( 98.83%)d 0.01(  0.01%)
                                                  f 0.00(  0.00%)
                                           -0.0000  0.0000 -0.0001  0.1072  0.0003
                                            0.0000  0.0000  0.0001  0.5056 -0.0061
                                           -0.0006 -0.0000  0.0001 -0.4620  0.0040
                                            0.0007  0.0000  0.0001  0.7205 -0.0077
                                           -0.0007 -0.0001  0.0024 -0.0010 -0.0004
                                           -0.0001  0.0037 -0.0013 -0.0006 -0.0002
                                            0.0060 -0.0006 -0.0009 -0.0001  0.0067
                                           -0.0006 -0.0009 -0.0000  0.0022 -0.0012
                                           -0.0002 -0.0022 -0.0003  0.0028 -0.0012
                                            0.0032  0.0001  0.0038
    54. (1.92104) LP ( 3)Br   3           s(  0.67%)p99.99( 99.31%)d 0.03(  0.02%)
                                                  f 0.01(  0.00%)
                                           -0.0000  0.0000 -0.0001  0.0821  0.0018
                                            0.0002 -0.0000  0.0002 -0.7883  0.0061
                                            0.0018 -0.0000  0.0003  0.0953 -0.0013
                                            0.0004  0.0000  0.0000  0.6020 -0.0058
                                           -0.0007  0.0001 -0.0086  0.0011  0.0012
                                           -0.0001  0.0013  0.0003 -0.0002 -0.0003
                                            0.0075 -0.0004 -0.0010  0.0003 -0.0049
                                            0.0009  0.0007  0.0000  0.0031 -0.0008
                                           -0.0004 -0.0022  0.0015  0.0019 -0.0024
                                            0.0003  0.0021 -0.0036
    55. (1.97630) LP ( 1) O   5           s( 56.83%)p 0.76( 43.06%)d 0.00(  0.11%)
                                                  f 0.00(  0.00%)
                                           -0.0004  0.7538 -0.0036  0.0003 -0.0003
                                            0.0106 -0.0003 -0.0003  0.3272  0.0000
                                            0.0021 -0.5687  0.0004 -0.0034  0.0011
                                            0.0006  0.0007  0.0004  0.0252  0.0006
                                            0.0069 -0.0001 -0.0202 -0.0003 -0.0015
                                           -0.0006  0.0034  0.0020 -0.0004 -0.0005
                                           -0.0006
    56. (1.87300) LP ( 2) O   5           s(  0.01%)p 1.00( 99.76%)d 0.00(  0.22%)
                                                  f 0.00(  0.01%)
                                            0.0000  0.0077 -0.0028  0.0009  0.0002
                                           -0.8338 -0.0139 -0.0004  0.4787  0.0087
                                            0.0009  0.2699  0.0052 -0.0001  0.0217
                                           -0.0006 -0.0329  0.0006  0.0119 -0.0001
                                            0.0103 -0.0002  0.0205 -0.0005  0.0057
                                           -0.0068  0.0006  0.0025  0.0071  0.0023
                                           -0.0027
    57. (0.78953) LP*( 1) C   9           s(  0.00%)p 1.00( 99.91%)d 0.00(  0.06%)
                                                  f 0.00(  0.02%)
                                           -0.0000  0.0002  0.0004 -0.0004  0.0000
                                           -0.0607  0.0005 -0.0010 -0.9731  0.0098
                                           -0.0171 -0.2196  0.0021 -0.0038  0.0233
                                            0.0010  0.0056  0.0002  0.0047  0.0005
                                            0.0041  0.0002  0.0017  0.0003 -0.0050
                                           -0.0002 -0.0077 -0.0063  0.0011 -0.0019
                                           -0.0106
    58. (0.00590) RY*( 1) C   1           s(  2.84%)p31.88( 90.61%)d 2.29(  6.51%)
                                                  f 0.01(  0.04%)
                                            0.0000  0.0093  0.1563  0.0624 -0.0008
                                           -0.0028  0.5069  0.0035  0.0041 -0.2110
                                            0.0300 -0.0164  0.7767 -0.0085 -0.0276
                                            0.0193  0.0505 -0.0988  0.0102  0.0398
                                           -0.0053  0.1391 -0.0320 -0.1720 -0.0036
                                            0.0085 -0.0074  0.0017 -0.0103  0.0116
                                            0.0052
    59. (0.00361) RY*( 2) C   1           s(  3.01%)p30.01( 90.23%)d 2.21(  6.66%)
                                                  f 0.04(  0.11%)
                                            0.0000 -0.0016  0.1722 -0.0202 -0.0011
                                           -0.0028  0.4723 -0.0071  0.0002  0.8130
                                            0.0395  0.0016 -0.1290 -0.0088 -0.0827
                                            0.1514  0.1593  0.0175 -0.0574 -0.0580
                                            0.0518 -0.0320 -0.0271 -0.0025 -0.0154
                                            0.0198 -0.0078 -0.0101  0.0115  0.0013
                                            0.0115
    60. (0.00325) RY*( 3) C   1           s(  3.27%)p28.37( 92.72%)d 1.21(  3.95%)
                                                  f 0.02(  0.07%)
                                            0.0000 -0.0000  0.1706 -0.0599  0.0010
                                           -0.0091 -0.7004  0.0570  0.0069  0.4299
                                            0.0003 -0.0059  0.4975 -0.0306 -0.0149
                                            0.0959  0.0153 -0.1338 -0.0498  0.0306
                                           -0.0023  0.0409  0.0181 -0.0807  0.0182
                                           -0.0118 -0.0047 -0.0084  0.0090  0.0015
                                            0.0056
    61. (0.00114) RY*( 4) C   1           s( 30.30%)p 0.05(  1.50%)d 2.21( 67.01%)
                                                  f 0.04(  1.20%)
                                           -0.0000 -0.0026  0.5328 -0.1381 -0.0049
                                            0.0314  0.0302  0.0289  0.0045 -0.0278
                                            0.0011 -0.0054 -0.0935  0.0518 -0.1364
                                           -0.0967 -0.5494  0.2982 -0.1014  0.0800
                                           -0.0086  0.0281  0.4196 -0.2403  0.0070
                                           -0.0373 -0.0225  0.0058  0.0198 -0.0930
                                           -0.0313
    62. (0.00092) RY*( 5) C   1           s( 17.49%)p 0.17(  3.03%)d 4.42( 77.31%)
                                                  f 0.12(  2.17%)
                                           -0.0000  0.0069  0.3954 -0.1351  0.0137
                                           -0.0025 -0.0175  0.0613 -0.0302 -0.0796
                                           -0.0003  0.0031 -0.1377  0.0054  0.7164
                                            0.0698  0.3482  0.0226  0.1409 -0.0393
                                           -0.2467  0.1338  0.0627 -0.1708  0.0404
                                            0.0606  0.0262 -0.0339 -0.0073  0.0690
                                            0.0988
    63. (0.00042) RY*( 6) C   1           s(  3.56%)p 1.15(  4.10%)d25.77( 91.63%)
                                                  f 0.20(  0.71%)
                                            0.0000 -0.0080  0.0561  0.1788  0.0199
                                           -0.0012 -0.0101 -0.0831 -0.0116 -0.0318
                                           -0.1059  0.0004  0.0046 -0.1470 -0.0205
                                            0.0627  0.0950 -0.2360  0.5192 -0.3308
                                            0.4029 -0.2596  0.4849 -0.0584  0.0223
                                            0.0083  0.0130 -0.0232  0.0416 -0.0099
                                           -0.0633
    64. (0.00037) RY*( 7) C   1           s( 23.47%)p 0.59( 13.86%)d 2.62( 61.46%)
                                                  f 0.05(  1.21%)
                                            0.0000 -0.0024  0.4742  0.0975  0.0187
                                           -0.0288 -0.1044 -0.0611  0.0066 -0.2803
                                            0.1176  0.0037 -0.1688 -0.0466 -0.5302
                                            0.3261  0.4302 -0.0781 -0.1471  0.0184
                                           -0.0665 -0.0346 -0.0795  0.0457  0.0084
                                            0.0654 -0.0191 -0.0266  0.0294  0.0415
                                            0.0639
    65. (0.00026) RY*( 8) C   1           s( 20.93%)p 0.26(  5.54%)d 2.94( 61.53%)
                                                  f 0.57( 12.00%)
                                            0.0000 -0.0048  0.3570  0.2839  0.0346
                                            0.0036  0.0079 -0.1306 -0.0013 -0.0225
                                            0.1117 -0.0204  0.0309 -0.1547  0.2551
                                            0.0459 -0.3719 -0.0596 -0.0224 -0.1239
                                            0.1711 -0.1761 -0.3930  0.4192  0.0824
                                           -0.2227  0.0225 -0.1919  0.0672  0.1154
                                            0.0920
    66. (0.00020) RY*( 9) C   1           s( 38.17%)p 0.11(  4.36%)d 1.37( 52.37%)
                                                  f 0.13(  5.09%)
                                            0.0000 -0.0046  0.1094  0.6077 -0.0212
                                           -0.0178 -0.1055  0.0698  0.0059  0.0823
                                            0.0015 -0.0118 -0.0634  0.1278 -0.0808
                                           -0.3186  0.1086  0.3254  0.2411 -0.0430
                                            0.1126  0.3528 -0.2225 -0.2266 -0.1330
                                           -0.0223  0.0439  0.1182 -0.0457  0.0680
                                           -0.1008
    67. (0.00016) RY*(10) C   1           s( 13.41%)p 0.33(  4.43%)d 5.49( 73.58%)
                                                  f 0.64(  8.58%)
                                            0.0000 -0.0109  0.0554  0.3609  0.0257
                                            0.0028  0.0086 -0.1765 -0.0026  0.0084
                                           -0.0518 -0.0018 -0.0708  0.0725  0.2193
                                           -0.2299  0.1164 -0.3865 -0.5514  0.2438
                                            0.1821 -0.0456  0.2706 -0.0080 -0.1298
                                           -0.0184 -0.1187  0.1565 -0.1117 -0.1311
                                           -0.0191
    68. (0.00012) RY*(11) C   1           s( 10.64%)p 2.50( 26.59%)d 5.67( 60.35%)
                                                  f 0.23(  2.41%)
                                           -0.0000  0.0168 -0.0899  0.3131 -0.0028
                                            0.0204 -0.0009 -0.3173 -0.0008  0.0827
                                            0.3518  0.0181  0.0208  0.1830 -0.0382
                                            0.0471 -0.1698 -0.1713  0.1435 -0.1713
                                           -0.6586  0.0330  0.2185  0.0959  0.0032
                                            0.1002  0.0240  0.0180  0.0817 -0.0793
                                            0.0155
    69. (0.00008) RY*(12) C   1           s(  0.93%)p40.01( 37.21%)d57.30( 53.29%)
                                                  f 9.22(  8.57%)
    70. (0.00005) RY*(13) C   1           s(  4.96%)p12.00( 59.49%)d 4.83( 23.96%)
                                                  f 2.34( 11.59%)
    71. (0.00002) RY*(14) C   1           s(  7.65%)p 5.98( 45.77%)d 3.00( 22.93%)
                                                  f 3.09( 23.64%)
    72. (0.00003) RY*(15) C   1           s(  7.95%)p 2.00( 15.88%)d 7.31( 58.06%)
                                                  f 2.28( 18.10%)
    73. (0.00001) RY*(16) C   1           s(  6.57%)p 1.79( 11.74%)d 2.66( 17.45%)
                                                  f 9.78( 64.24%)
    74. (0.00000) RY*(17) C   1           s( 90.11%)p 0.01(  0.87%)d 0.01(  1.19%)
                                                  f 0.09(  7.83%)
    75. (0.00001) RY*(18) C   1           s(  7.43%)p 3.96( 29.44%)d 7.82( 58.10%)
                                                  f 0.68(  5.03%)
    76. (0.00000) RY*(19) C   1           s(  1.20%)p 0.95(  1.13%)d79.06( 94.59%)
                                                  f 2.58(  3.08%)
    77. (0.00001) RY*(20) C   1           s(  0.78%)p 7.83(  6.09%)d 6.71(  5.22%)
                                                  f99.99( 87.91%)
    78. (0.00000) RY*(21) C   1           s(  0.96%)p22.11( 21.19%)d73.80( 70.73%)
                                                  f 7.43(  7.12%)
    79. (0.00000) RY*(22) C   1           s(  0.24%)p11.65(  2.78%)d14.34(  3.42%)
                                                  f99.99( 93.57%)
    80. (0.00001) RY*(23) C   1           s(  0.66%)p15.58( 10.35%)d19.83( 13.18%)
                                                  f99.99( 75.80%)
    81. (0.00000) RY*(24) C   1           s(  0.24%)p14.61(  3.47%)d24.65(  5.85%)
                                                  f99.99( 90.44%)
    82. (0.00000) RY*(25) C   1           s(  1.76%)p 8.12( 14.32%)d 3.85(  6.79%)
                                                  f43.71( 77.13%)
    83. (0.00000) RY*(26) C   1           s(  1.56%)p 2.54(  3.95%)d 1.43(  2.23%)
                                                  f59.24( 92.26%)
    84. (0.00561) RY*( 1) C   2           s(  0.04%)p99.99( 88.03%)d99.99( 11.31%)
                                                  f16.20(  0.62%)
                                            0.0000  0.0089  0.0062  0.0140  0.0084
                                           -0.0169 -0.2927  0.0025 -0.0189  0.3627
                                           -0.1030 -0.0120 -0.8069  0.0229 -0.0077
                                            0.0226 -0.1137 -0.0081 -0.2508 -0.0380
                                           -0.0123 -0.0819 -0.1193  0.1187 -0.0047
                                            0.0119  0.0422 -0.0360  0.0383  0.0373
                                            0.0101
    85. (0.00451) RY*( 2) C   2           s(  4.26%)p15.69( 66.85%)d 6.69( 28.50%)
                                                  f 0.09(  0.39%)
                                            0.0000  0.0016  0.1849 -0.0917 -0.0028
                                           -0.0134  0.7629  0.1176 -0.0114  0.1364
                                            0.0116  0.0144 -0.1251 -0.1943  0.3625
                                            0.0031  0.0649 -0.0079 -0.3343  0.0684
                                            0.0929  0.0163 -0.1393 -0.0679 -0.0031
                                            0.0009  0.0245  0.0070  0.0067  0.0076
                                           -0.0558
    86. (0.00309) RY*( 3) C   2           s(  5.02%)p 5.16( 25.91%)d13.48( 67.67%)
                                                  f 0.28(  1.40%)
                                            0.0000  0.0002  0.1953 -0.1097  0.0033
                                            0.0059 -0.0451 -0.0637 -0.0092  0.3060
                                            0.1556  0.0188  0.2311 -0.2850 -0.3629
                                           -0.0288 -0.2556  0.0924 -0.2665  0.0935
                                           -0.5677  0.1219 -0.1366 -0.1863 -0.0066
                                            0.0013  0.0306  0.0565  0.0642 -0.0476
                                            0.0588
    87. (0.00184) RY*( 4) C   2           s( 24.21%)p 1.41( 34.14%)d 1.66( 40.17%)
                                                  f 0.06(  1.48%)
                                            0.0000 -0.0036  0.4609 -0.1720 -0.0100
                                           -0.0042  0.1337  0.1171 -0.0027 -0.3892
                                            0.0278 -0.0097 -0.3961 -0.0240 -0.2629
                                            0.0001  0.3085  0.0227  0.2313 -0.0599
                                           -0.2878  0.0841  0.2955 -0.0508 -0.0024
                                            0.0029  0.0028  0.0986  0.0534 -0.0436
                                           -0.0177
    88. (0.00120) RY*( 5) C   2           s(  4.16%)p14.97( 62.24%)d 7.77( 32.28%)
                                                  f 0.32(  1.33%)
                                            0.0000  0.0158  0.0645  0.1927 -0.0037
                                           -0.0077 -0.1123 -0.1391 -0.0320 -0.6551
                                           -0.1890  0.0096 -0.0711 -0.3454 -0.0922
                                           -0.1017 -0.2564 -0.0394 -0.3679  0.0813
                                            0.1781  0.1580 -0.1946  0.0140 -0.0181
                                            0.0220 -0.0042 -0.1068  0.0291  0.0095
                                            0.0100
    89. (0.00073) RY*( 6) C   2           s( 21.49%)p 1.31( 28.20%)d 2.12( 45.57%)
                                                  f 0.22(  4.73%)
                                            0.0000  0.0082  0.4564 -0.0796  0.0158
                                           -0.0059 -0.3929 -0.1743 -0.0104  0.1037
                                           -0.1471 -0.0210  0.2418  0.0764  0.3309
                                           -0.0162  0.3498 -0.1350 -0.3842  0.0385
                                            0.0649  0.0705  0.2166  0.0116 -0.0344
                                           -0.0630  0.1441  0.0842  0.0285 -0.0321
                                           -0.1117
    90. (0.00053) RY*( 7) C   2           s(  8.54%)p 4.23( 36.12%)d 6.14( 52.45%)
                                                  f 0.34(  2.89%)
                                            0.0000  0.0046 -0.1279  0.2628  0.0022
                                           -0.0217  0.2740 -0.2477 -0.0425  0.1720
                                           -0.3970 -0.0252 -0.0054  0.1860 -0.3233
                                           -0.0798 -0.0787  0.2267 -0.1735 -0.0167
                                            0.1044  0.1676  0.5263 -0.0980  0.0480
                                           -0.0856  0.0293 -0.0264  0.0885 -0.0384
                                           -0.0917
    91. (0.00037) RY*( 8) C   2           s(  4.24%)p 6.49( 27.50%)d15.06( 63.82%)
                                                  f 1.05(  4.44%)
                                            0.0000  0.0011  0.2054  0.0129 -0.0059
                                            0.0009  0.0418  0.0176 -0.0374  0.2891
                                           -0.2874  0.0060  0.0994 -0.3090 -0.4656
                                            0.0242  0.2809 -0.1982  0.1938  0.0137
                                            0.3977  0.0002 -0.2716  0.1818 -0.1208
                                            0.0401 -0.1179  0.0815 -0.0488 -0.0635
                                            0.0353
    92. (0.00028) RY*( 9) C   2           s( 25.01%)p 1.29( 32.16%)d 1.61( 40.33%)
                                                  f 0.10(  2.51%)
                                           -0.0000 -0.0000  0.3781 -0.3272  0.0037
                                           -0.0211  0.1079 -0.4957  0.0053 -0.0087
                                           -0.0828  0.0145 -0.0154  0.2374  0.0767
                                           -0.0618 -0.5046  0.0462  0.2728  0.0496
                                            0.1277 -0.1318 -0.1056  0.1226 -0.0233
                                           -0.0564 -0.0019  0.0977 -0.0406 -0.1008
                                            0.0069
    93. (0.00023) RY*(10) C   2           s( 41.18%)p 0.95( 39.10%)d 0.41( 16.97%)
                                                  f 0.07(  2.75%)
                                           -0.0000 -0.0046  0.4046  0.4964  0.0408
                                           -0.0149 -0.0235  0.5116  0.0017  0.0401
                                           -0.2732  0.0047  0.1098  0.2005  0.0886
                                           -0.1609 -0.2543  0.0456  0.1159  0.0144
                                           -0.1225 -0.1673 -0.1103  0.0198  0.1584
                                            0.0099 -0.0068  0.0166 -0.0099  0.0074
                                           -0.0426
    94. (0.00020) RY*(11) C   2           s( 13.07%)p 2.17( 28.41%)d 4.01( 52.38%)
                                                  f 0.47(  6.14%)
                                           -0.0000  0.0082  0.1783  0.3143 -0.0068
                                           -0.0203 -0.0805 -0.1738  0.0088  0.1687
                                            0.0976  0.0119 -0.0784 -0.4502  0.2938
                                            0.2334 -0.1389  0.0151  0.3407 -0.2621
                                            0.0697  0.2714  0.2013 -0.2441  0.0319
                                           -0.0413 -0.0300 -0.1510 -0.1366  0.0147
                                            0.1269
    95. (0.00011) RY*(12) C   2           s(  8.08%)p 5.96( 48.14%)d 5.02( 40.56%)
                                                  f 0.40(  3.22%)
                                            0.0000 -0.0102  0.2140  0.1869  0.0019
                                           -0.0105  0.0228  0.0615 -0.0095  0.0657
                                            0.6675  0.0047 -0.0337  0.1606 -0.2533
                                           -0.1226 -0.1481 -0.2917 -0.1248  0.1818
                                            0.3537  0.0056  0.2130 -0.0138 -0.0204
                                            0.0342  0.0039 -0.1431 -0.0305  0.0456
                                           -0.0843
    96. (0.00011) RY*(13) C   2           s( 15.90%)p 2.02( 32.12%)d 2.64( 41.97%)
                                                  f 0.63( 10.01%)
                                           -0.0000 -0.0129  0.0478  0.3944  0.0323
                                            0.0238  0.0854 -0.4422 -0.0040 -0.0054
                                            0.1357 -0.0010 -0.0803  0.3048  0.0088
                                           -0.0896  0.3548  0.0053  0.0628  0.0731
                                           -0.1439  0.2118 -0.4456 -0.1108  0.2330
                                            0.0319 -0.1213  0.0392  0.1306  0.0683
                                            0.0823
    97. (0.00006) RY*(14) C   2           s(  1.03%)p18.11( 18.72%)d66.57( 68.84%)
                                                  f11.02( 11.40%)
    98. (0.00003) RY*(15) C   2           s(  9.94%)p 0.70(  6.98%)d 6.63( 65.91%)
                                                  f 1.73( 17.17%)
    99. (0.00000) RY*(16) C   2           s(  2.97%)p 1.45(  4.29%)d31.00( 91.93%)
                                                  f 0.27(  0.81%)
   100. (0.00001) RY*(17) C   2           s(  2.41%)p 2.83(  6.83%)d36.90( 89.00%)
                                                  f 0.73(  1.76%)
   101. (0.00001) RY*(18) C   2           s(  2.03%)p 1.14(  2.31%)d 4.63(  9.41%)
                                                  f42.41( 86.24%)
   102. (0.00001) RY*(19) C   2           s(  0.85%)p 6.71(  5.70%)d99.99( 93.28%)
                                                  f 0.20(  0.17%)
   103. (0.00000) RY*(20) C   2           s(  5.08%)p 0.30(  1.52%)d 1.05(  5.31%)
                                                  f17.36( 88.09%)
   104. (0.00000) RY*(21) C   2           s( 96.81%)p 0.00(  0.46%)d 0.01(  1.10%)
                                                  f 0.02(  1.62%)
   105. (0.00001) RY*(22) C   2           s(  0.37%)p 2.41(  0.89%)d25.98(  9.61%)
                                                  f99.99( 89.12%)
   106. (0.00000) RY*(23) C   2           s(  1.58%)p 0.95(  1.49%)d 9.42( 14.87%)
                                                  f52.02( 82.06%)
   107. (0.00000) RY*(24) C   2           s(  0.61%)p 1.90(  1.15%)d12.32(  7.46%)
                                                  f99.99( 90.78%)
   108. (0.00001) RY*(25) C   2           s(  0.93%)p 1.15(  1.06%)d 1.18(  1.09%)
                                                  f99.99( 96.92%)
   109. (0.00000) RY*(26) C   2           s(  0.21%)p 2.01(  0.42%)d35.70(  7.47%)
                                                  f99.99( 91.90%)
   110. (0.00165) RY*( 1)Br   3           s(  0.82%)p50.21( 40.98%)d66.91( 54.61%)
                                                  f 4.40(  3.59%)
                                           -0.0000 -0.0000  0.0000 -0.0005  0.0897
                                           -0.0106  0.0000 -0.0000 -0.0057  0.5875
                                           -0.1116  0.0000 -0.0000 -0.0029 -0.1081
                                            0.0471 -0.0000 -0.0000  0.0004 -0.1922
                                            0.0361  0.0000  0.5295 -0.0321 -0.0382
                                            0.0000 -0.0086 -0.0925 -0.0019  0.0000
                                           -0.1256  0.1245  0.0098 -0.0000  0.4505
                                            0.0096 -0.0210 -0.0000 -0.1345 -0.0381
                                            0.0151 -0.0125 -0.0658 -0.0417  0.0357
                                           -0.0124 -0.0821  0.1466
   111. (0.00146) RY*( 2)Br   3           s(  0.79%)p58.28( 45.97%)d62.11( 48.99%)
                                                  f 5.39(  4.25%)
                                           -0.0000 -0.0000  0.0000 -0.0021  0.0888
                                            0.0022  0.0000 -0.0000 -0.0050 -0.1185
                                            0.0463  0.0000 -0.0000 -0.0120  0.3500
                                           -0.0112 -0.0000 -0.0000 -0.0025 -0.5498
                                            0.1358  0.0000 -0.0243  0.0157  0.0018
                                            0.0000 -0.2901  0.0039  0.0162  0.0000
                                           -0.3515  0.1611  0.0284 -0.0000 -0.2682
                                            0.0755 -0.0023 -0.0000 -0.4195  0.0098
                                            0.0240  0.0498 -0.0536 -0.1439  0.0385
                                           -0.1104 -0.0118 -0.0516
   112. (0.00031) RY*( 3)Br   3           s(  5.86%)p 4.61( 27.00%)d11.09( 65.03%)
                                                  f 0.36(  2.12%)
                                           -0.0000 -0.0000  0.0000 -0.0055  0.2409
                                           -0.0232  0.0000 -0.0000 -0.0141  0.2724
                                            0.0614  0.0000 -0.0000 -0.0399  0.3746
                                            0.0977 -0.0000 -0.0000 -0.0121  0.1792
                                           -0.0901  0.0000  0.1728 -0.0964  0.0694
                                            0.0000  0.4080  0.3569  0.0002  0.0000
                                           -0.0631 -0.3031 -0.0166 -0.0000 -0.3293
                                           -0.2498 -0.0360 -0.0000 -0.2061 -0.0224
                                           -0.0344 -0.0043 -0.0032  0.0143  0.0157
                                            0.1398  0.0329 -0.0060
   113. (0.00030) RY*( 4)Br   3           s( 53.01%)p 0.05(  2.84%)d 0.76( 40.13%)
                                                  f 0.08(  4.02%)
                                           -0.0000 -0.0000  0.0000 -0.0029  0.7258
                                           -0.0580  0.0000 -0.0000 -0.0016  0.0895
                                            0.0045  0.0000 -0.0000 -0.0173 -0.0371
                                            0.0677 -0.0000 -0.0000 -0.0126 -0.1160
                                            0.0229  0.0000 -0.2049  0.1766 -0.0348
                                            0.0000 -0.0131 -0.0674 -0.0300  0.0000
                                            0.3831  0.3376 -0.0676 -0.0000 -0.0576
                                           -0.1474  0.0551 -0.0000  0.0910 -0.1359
                                            0.0341 -0.1140 -0.0270 -0.0539 -0.1108
                                            0.0391 -0.0832 -0.0530
   114. (0.00017) RY*( 5)Br   3           s(  2.47%)p11.68( 28.88%)d26.55( 65.64%)
                                                  f 1.22(  3.01%)
                                           -0.0000 -0.0000  0.0000 -0.0019  0.1547
                                           -0.0282  0.0000 -0.0000 -0.0132 -0.4385
                                            0.1158  0.0000 -0.0000 -0.0085  0.2807
                                            0.0609 -0.0000 -0.0000 -0.0039  0.0150
                                           -0.0106 -0.0000  0.5360  0.4617 -0.0201
                                            0.0000 -0.0056  0.0100 -0.0126  0.0000
                                           -0.0255 -0.0318 -0.0003 -0.0000  0.1443
                                           -0.0025 -0.0442 -0.0000  0.2668  0.2430
                                           -0.0216  0.0993 -0.0271  0.0765 -0.0415
                                            0.0540 -0.0903 -0.0289
   115. (0.00016) RY*( 6)Br   3           s(  1.60%)p19.57( 31.39%)d38.69( 62.06%)
                                                  f 3.08(  4.95%)
                                            0.0000  0.0000 -0.0000  0.0041  0.1221
                                           -0.0334 -0.0000  0.0000  0.0103 -0.2205
                                            0.0477 -0.0000  0.0000  0.0290 -0.4834
                                            0.0497  0.0000  0.0000  0.0121 -0.1602
                                           -0.0085 -0.0000 -0.1238  0.1199 -0.0403
                                           -0.0000  0.3713  0.4488 -0.0367 -0.0000
                                           -0.4540  0.0909 -0.0453  0.0000  0.1714
                                           -0.0272  0.0354  0.0000  0.0096 -0.0243
                                            0.0153 -0.0069 -0.0261 -0.1918  0.0480
                                            0.0761 -0.0413 -0.0462
   116. (0.00010) RY*( 7)Br   3           s(  0.03%)p99.99( 10.46%)d99.99( 79.37%)
                                                  f99.99( 10.15%)
                                            0.0000  0.0000 -0.0000  0.0008  0.0136
                                            0.0089 -0.0000  0.0000  0.0059  0.1636
                                            0.0452 -0.0000  0.0000  0.0054 -0.2204
                                            0.0531  0.0000  0.0000  0.0048 -0.1403
                                            0.0677  0.0000  0.0403 -0.1464  0.0451
                                           -0.0000 -0.1147 -0.2306 -0.0028 -0.0000
                                           -0.2838 -0.0231 -0.0021  0.0000 -0.3828
                                           -0.4338  0.0695  0.0000  0.4300  0.3057
                                           -0.0567  0.0640  0.0138  0.0979  0.1296
                                            0.0411 -0.2627  0.0083
   117. (0.00005) RY*( 8)Br   3           s(  7.38%)p 3.12( 23.05%)d 8.64( 63.77%)
                                                  f 0.79(  5.81%)
   118. (0.00001) RY*( 9)Br   3           s(  0.16%)p99.99( 98.10%)d 9.99(  1.56%)
                                                  f 1.14(  0.18%)
   119. (0.00001) RY*(10)Br   3           s(  4.09%)p 3.62( 14.82%)d17.57( 71.86%)
                                                  f 2.26(  9.22%)
   120. (0.00000) RY*(11)Br   3           s(  0.07%)p 3.50(  0.25%)d99.99( 99.60%)
                                                  f 1.08(  0.08%)
   121. (0.00001) RY*(12)Br   3           s(  0.12%)p39.89(  4.62%)d99.99( 95.08%)
                                                  f 1.60(  0.19%)
   122. (0.00000) RY*(13)Br   3           s( 99.33%)p 0.00(  0.06%)d 0.01(  0.57%)
                                                  f 0.00(  0.04%)
   123. (0.00000) RY*(14)Br   3           s(  0.03%)p 1.46(  0.05%)d99.99( 99.90%)
                                                  f 0.67(  0.02%)
   124. (0.00000) RY*(15)Br   3           s(  1.32%)p73.64( 97.02%)d 1.12(  1.47%)
                                                  f 0.14(  0.19%)
   125. (0.00001) RY*(16)Br   3           s(  7.06%)p 1.88( 13.28%)d11.27( 79.52%)
                                                  f 0.02(  0.15%)
   126. (0.00000) RY*(17)Br   3           s(  0.75%)p 1.16(  0.87%)d99.99( 98.34%)
                                                  f 0.06(  0.04%)
   127. (0.00001) RY*(18)Br   3           s(  4.78%)p 4.42( 21.09%)d14.92( 71.23%)
                                                  f 0.61(  2.91%)
   128. (0.00001) RY*(19)Br   3           s(  0.06%)p99.99( 20.58%)d99.99( 78.01%)
                                                  f23.50(  1.35%)
   129. (0.00000) RY*(20)Br   3           s(  0.19%)p 3.37(  0.63%)d99.99( 99.16%)
                                                  f 0.16(  0.03%)
   130. (0.00000) RY*(21)Br   3           s(  0.16%)p99.99( 98.26%)d 7.80(  1.22%)
                                                  f 2.33(  0.36%)
   131. (0.00001) RY*(22)Br   3           s(  4.34%)p 1.69(  7.35%)d20.02( 86.88%)
                                                  f 0.33(  1.43%)
   132. (0.00000) RY*(23)Br   3           s(  0.04%)p 1.51(  0.06%)d99.99( 99.82%)
                                                  f 2.04(  0.08%)
   133. (0.00000) RY*(24)Br   3           s(  0.53%)p 1.12(  0.59%)d 4.82(  2.55%)
                                                  f99.99( 96.33%)
   134. (0.00000) RY*(25)Br   3           s(  0.03%)p34.25(  0.98%)d26.87(  0.77%)
                                                  f99.99( 98.23%)
   135. (0.00000) RY*(26)Br   3           s(  0.11%)p38.27(  4.04%)d69.29(  7.32%)
                                                  f99.99( 88.54%)
   136. (0.00000) RY*(27)Br   3           s(  1.79%)p 1.37(  2.44%)d 1.50(  2.69%)
                                                  f52.02( 93.08%)
   137. (0.00000) RY*(28)Br   3           s(  0.89%)p 1.18(  1.06%)d 4.57(  4.07%)
                                                  f99.99( 93.98%)
   138. (0.00000) RY*(29)Br   3           s(  2.10%)p 1.12(  2.35%)d 7.98( 16.74%)
                                                  f37.58( 78.81%)
   139. (0.00000) RY*(30)Br   3           s(  0.08%)p15.57(  1.32%)d20.41(  1.73%)
                                                  f99.99( 96.86%)
   140. (0.01604) RY*( 1) C   4           s( 20.57%)p 3.84( 79.07%)d 0.02(  0.33%)
                                                  f 0.00(  0.04%)
                                           -0.0000 -0.0295  0.4523  0.0137 -0.0046
                                            0.0082  0.0572  0.0117 -0.0344  0.4076
                                            0.0116  0.0476 -0.7856 -0.0181 -0.0092
                                            0.0150  0.0086 -0.0101  0.0206  0.0280
                                           -0.0039  0.0050 -0.0346 -0.0180 -0.0058
                                           -0.0108  0.0124  0.0080 -0.0024  0.0004
                                           -0.0017
   141. (0.00410) RY*( 2) C   4           s(  1.30%)p62.14( 80.73%)d13.72( 17.83%)
                                                  f 0.11(  0.14%)
                                           -0.0000 -0.0137  0.0278  0.1091 -0.0109
                                            0.0110 -0.5784 -0.0190 -0.0015  0.6207
                                           -0.0612  0.0104  0.2877 -0.0154  0.2025
                                            0.0059 -0.2032  0.1351  0.1312  0.0310
                                            0.1165 -0.0416  0.2061 -0.0420 -0.0050
                                            0.0242  0.0057  0.0180 -0.0111 -0.0169
                                            0.0068
   142. (0.00208) RY*( 3) C   4           s(  2.50%)p30.88( 77.31%)d 7.91( 19.81%)
                                                  f 0.15(  0.37%)
                                           -0.0000 -0.0022  0.1309 -0.0888 -0.0045
                                           -0.0148 -0.6320  0.0011 -0.0255 -0.5264
                                            0.1612 -0.0056 -0.2480  0.0905  0.1459
                                           -0.0535 -0.3438 -0.0959 -0.0629 -0.0540
                                           -0.1348 -0.1031 -0.0810 -0.0659 -0.0346
                                           -0.0188 -0.0008 -0.0328  0.0249 -0.0105
                                            0.0195
   143. (0.00123) RY*( 4) C   4           s(  3.01%)p 7.83( 23.54%)d23.86( 71.75%)
                                                  f 0.57(  1.70%)
                                            0.0000 -0.0049  0.1712 -0.0269 -0.0048
                                           -0.0195 -0.4059  0.0508  0.0075  0.0734
                                            0.0274  0.0145  0.1299 -0.2107 -0.3198
                                            0.0450  0.6185 -0.0692 -0.2751  0.0431
                                           -0.2259 -0.0064 -0.2831  0.1310 -0.0540
                                            0.0636 -0.0240  0.0282 -0.0787 -0.0387
                                            0.0312
   144. (0.00057) RY*( 5) C   4           s(  4.82%)p 1.12(  5.38%)d18.06( 87.00%)
                                                  f 0.58(  2.80%)
                                           -0.0000  0.0017  0.2152  0.0433 -0.0007
                                            0.0167 -0.0218  0.1192  0.0061 -0.1882
                                            0.0497  0.0217  0.0090  0.0193 -0.1810
                                           -0.1679  0.1890  0.0405  0.3217  0.1965
                                           -0.2819 -0.0768  0.7273  0.1238  0.0721
                                            0.0710 -0.0526  0.0579 -0.0070 -0.0916
                                           -0.0562
   145. (0.00049) RY*( 6) C   4           s( 19.05%)p 0.56( 10.71%)d 3.57( 68.10%)
                                                  f 0.11(  2.14%)
                                           -0.0000  0.0030  0.4255 -0.0971  0.0076
                                            0.0008  0.1615  0.0885 -0.0233 -0.0251
                                           -0.1395  0.0237  0.2160 -0.0728  0.4568
                                           -0.0707  0.0089 -0.0961 -0.6043  0.0050
                                           -0.0757  0.0910  0.2494 -0.1290  0.0190
                                           -0.0737 -0.0769 -0.0833  0.0267  0.0352
                                           -0.0283
   146. (0.00027) RY*( 7) C   4           s( 21.21%)p 1.79( 38.07%)d 1.77( 37.63%)
                                                  f 0.15(  3.09%)
                                           -0.0000 -0.0021 -0.1922  0.4171 -0.0344
                                            0.0037 -0.1418  0.3548  0.0007 -0.2157
                                           -0.3688 -0.0031 -0.2235  0.0459  0.1273
                                            0.0825  0.2677  0.3426 -0.1121  0.1410
                                            0.2799  0.0360  0.0532 -0.2222 -0.0124
                                            0.0178  0.0894 -0.0457  0.0051 -0.1035
                                           -0.0979
   147. (0.00020) RY*( 8) C   4           s(  9.01%)p 2.03( 18.27%)d 7.98( 71.88%)
                                                  f 0.09(  0.85%)
                                            0.0000  0.0028  0.2999 -0.0087  0.0064
                                            0.0066 -0.1027 -0.2986  0.0100 -0.2084
                                           -0.0612  0.0099  0.0430 -0.1835 -0.1536
                                           -0.0364  0.0493 -0.0861  0.0647 -0.1292
                                            0.7096  0.3044  0.1230  0.2277  0.0221
                                           -0.0201 -0.0279 -0.0082  0.0074 -0.0760
                                            0.0297
   148. (0.00015) RY*( 9) C   4           s( 49.28%)p 0.34( 16.90%)d 0.66( 32.38%)
                                                  f 0.03(  1.44%)
                                           -0.0000  0.0054  0.5950  0.3689  0.0516
                                           -0.0013  0.1444  0.1447 -0.0122 -0.1210
                                           -0.0424  0.0065  0.3261  0.0653 -0.1142
                                            0.1946 -0.1969  0.1163  0.2592  0.0786
                                           -0.0358 -0.1738 -0.3296 -0.0847 -0.0587
                                           -0.0098  0.0904  0.0308 -0.0269  0.0319
                                           -0.0009
   149. (0.00007) RY*(10) C   4           s( 40.89%)p 0.51( 20.96%)d 0.76( 31.20%)
                                                  f 0.17(  6.96%)
   150. (0.00003) RY*(11) C   4           s(  6.83%)p 8.50( 58.07%)d 4.05( 27.70%)
                                                  f 1.08(  7.40%)
   151. (0.00000) RY*(12) C   4           s( 95.58%)p 0.01(  0.77%)d 0.04(  3.44%)
                                                  f 0.00(  0.21%)
   152. (0.00000) RY*(13) C   4           s(  0.07%)p99.99( 12.13%)d99.99( 87.76%)
                                                  f 0.62(  0.04%)
   153. (0.00001) RY*(14) C   4           s(  5.72%)p15.12( 86.53%)d 1.34(  7.67%)
                                                  f 0.01(  0.08%)
   154. (0.00000) RY*(15) C   4           s(  7.27%)p 0.14(  1.01%)d12.58( 91.48%)
                                                  f 0.03(  0.24%)
   155. (0.00000) RY*(16) C   4           s(  1.30%)p37.71( 49.00%)d38.07( 49.48%)
                                                  f 0.18(  0.23%)
   156. (0.00000) RY*(17) C   4           s(  1.04%)p 2.86(  2.99%)d91.77( 95.75%)
                                                  f 0.21(  0.22%)
   157. (0.00000) RY*(18) C   4           s(  7.19%)p 0.23(  1.67%)d12.61( 90.65%)
                                                  f 0.07(  0.49%)
   158. (0.00000) RY*(19) C   4           s(  0.40%)p17.00(  6.72%)d99.99( 92.76%)
                                                  f 0.32(  0.13%)
   159. (0.00000) RY*(20) C   4           s(  0.07%)p25.42(  1.68%)d33.83(  2.23%)
                                                  f99.99( 96.03%)
   160. (0.00000) RY*(21) C   4           s(  0.88%)p 2.79(  2.45%)d 2.55(  2.24%)
                                                  f99.99( 94.44%)
   161. (0.00000) RY*(22) C   4           s(  0.31%)p 1.81(  0.55%)d 6.96(  2.13%)
                                                  f99.99( 97.01%)
   162. (0.00000) RY*(23) C   4           s(  0.06%)p 4.57(  0.27%)d24.67(  1.44%)
                                                  f99.99( 98.24%)
   163. (0.00000) RY*(24) C   4           s(  0.21%)p 2.49(  0.53%)d 6.01(  1.28%)
                                                  f99.99( 97.97%)
   164. (0.00000) RY*(25) C   4           s(  0.93%)p 4.50(  4.19%)d 3.67(  3.42%)
                                                  f98.20( 91.46%)
   165. (0.00000) RY*(26) C   4           s(  0.35%)p 2.93(  1.02%)d 6.77(  2.36%)
                                                  f99.99( 96.28%)
   166. (0.00263) RY*( 1) O   5           s(  0.10%)p99.99( 96.87%)d28.67(  2.96%)
                                                  f 0.68(  0.07%)
                                            0.0000 -0.0013  0.0316 -0.0055 -0.0003
                                           -0.0112  0.8101 -0.0740  0.0078 -0.4645
                                            0.0450  0.0005 -0.2979  0.0129  0.0508
                                            0.0621 -0.0412 -0.1078  0.0220  0.0441
                                           -0.0143  0.0442  0.0535  0.0489  0.0155
                                            0.0068 -0.0077 -0.0158  0.0089  0.0049
                                           -0.0018
   167. (0.00049) RY*( 2) O   5           s( 81.46%)p 0.11(  8.71%)d 0.12(  9.55%)
                                                  f 0.00(  0.28%)
                                           -0.0000 -0.0040  0.9015  0.0431 -0.0082
                                            0.0075 -0.1446  0.0965 -0.0021 -0.0573
                                            0.0258 -0.0103 -0.2176 -0.0739  0.2135
                                           -0.0946 -0.1131  0.0710  0.0509  0.0414
                                            0.1076 -0.0053  0.0740 -0.0422 -0.0073
                                           -0.0366  0.0045  0.0275  0.0196  0.0049
                                           -0.0138
   168. (0.00041) RY*( 3) O   5           s(  4.19%)p20.72( 86.85%)d 2.06(  8.62%)
                                                  f 0.08(  0.34%)
                                            0.0000 -0.0042  0.2044 -0.0106 -0.0057
                                           -0.0050  0.4926 -0.0701  0.0102  0.7763
                                            0.0094 -0.0008  0.1341 -0.0122  0.0076
                                            0.0252  0.2201 -0.1079 -0.0674 -0.0384
                                            0.0619 -0.0863 -0.0589 -0.0680 -0.0105
                                            0.0291  0.0107  0.0302 -0.0278 -0.0210
                                           -0.0126
   169. (0.00022) RY*( 4) O   5           s(  3.02%)p25.77( 77.83%)d 6.26( 18.92%)
                                                  f 0.08(  0.23%)
                                           -0.0000  0.0214  0.1446 -0.0935 -0.0096
                                            0.0043  0.1596  0.0408 -0.0251 -0.2633
                                           -0.0429  0.0363  0.8125 -0.1337  0.0079
                                            0.0134 -0.1092  0.0177  0.2914 -0.0046
                                            0.2397 -0.0446 -0.1714 -0.0539 -0.0040
                                            0.0008  0.0095  0.0405  0.0213  0.0065
                                           -0.0099
   170. (0.00013) RY*( 5) O   5           s( 10.17%)p 1.97( 20.00%)d 6.60( 67.17%)
                                                  f 0.26(  2.66%)
                                           -0.0000  0.0003 -0.1779  0.2647  0.0004
                                            0.0268  0.1023  0.1333 -0.0142  0.1824
                                           -0.3420 -0.0111 -0.0966  0.1055  0.0110
                                           -0.0148 -0.6170  0.1452  0.0309 -0.0729
                                            0.4254 -0.1268  0.2399 -0.0939  0.0647
                                           -0.0767 -0.0585  0.0571  0.0879  0.0217
                                           -0.0403
   171. (0.00011) RY*( 6) O   5           s(  7.72%)p 2.30( 17.78%)d 8.93( 68.92%)
                                                  f 0.72(  5.58%)
                                            0.0000  0.0198  0.0333  0.2752  0.0006
                                           -0.0080 -0.0746 -0.2361 -0.0237  0.0356
                                            0.1080  0.0543 -0.2441  0.2010 -0.3004
                                            0.0921 -0.0530 -0.1047  0.4072  0.0692
                                            0.2497  0.0088 -0.5821  0.0699 -0.1169
                                           -0.0087  0.1432  0.0628 -0.1072 -0.0675
                                           -0.0399
   172. (0.00007) RY*( 7) O   5           s(  1.90%)p10.22( 19.45%)d39.10( 74.46%)
                                                  f 2.20(  4.18%)
   173. (0.00002) RY*( 8) O   5           s(  4.43%)p14.86( 65.79%)d 6.05( 26.78%)
                                                  f 0.68(  3.01%)
   174. (0.00003) RY*( 9) O   5           s( 16.57%)p 0.85( 14.00%)d 4.04( 66.89%)
                                                  f 0.15(  2.53%)
   175. (0.00003) RY*(10) O   5           s(  1.21%)p40.43( 48.84%)d37.82( 45.69%)
                                                  f 3.52(  4.26%)
   176. (0.00000) RY*(11) O   5           s(  1.50%)p 1.65(  2.48%)d63.90( 96.01%)
                                                  f 0.00(  0.00%)
   177. (0.00000) RY*(12) O   5           s(  3.68%)p23.28( 85.60%)d 2.80( 10.29%)
                                                  f 0.12(  0.43%)
   178. (0.00000) RY*(13) O   5           s(  0.02%)p99.99(  4.67%)d99.99( 95.29%)
                                                  f 0.31(  0.01%)
   179. (0.00000) RY*(14) O   5           s( 99.90%)p 0.00(  0.08%)d 0.00(  0.02%)
                                                  f 0.00(  0.00%)
   180. (0.00000) RY*(15) O   5           s(  0.71%)p 2.22(  1.58%)d99.99( 97.69%)
                                                  f 0.01(  0.01%)
   181. (0.00001) RY*(16) O   5           s( 52.89%)p 0.54( 28.44%)d 0.34( 18.05%)
                                                  f 0.01(  0.62%)
   182. (0.00000) RY*(17) O   5           s(  0.21%)p 5.01(  1.03%)d99.99( 98.73%)
                                                  f 0.14(  0.03%)
   183. (0.00001) RY*(18) O   5           s(  8.12%)p 0.78(  6.30%)d10.44( 84.81%)
                                                  f 0.09(  0.77%)
   184. (0.00000) RY*(19) O   5           s(  0.27%)p 8.84(  2.35%)d99.99( 97.35%)
                                                  f 0.13(  0.04%)
   185. (0.00000) RY*(20) O   5           s(  0.28%)p14.82(  4.10%)d 4.11(  1.14%)
                                                  f99.99( 94.48%)
   186. (0.00000) RY*(21) O   5           s(  1.00%)p 2.16(  2.16%)d 0.31(  0.31%)
                                                  f96.51( 96.53%)
   187. (0.00000) RY*(22) O   5           s(  0.10%)p 2.00(  0.19%)d34.12(  3.28%)
                                                  f99.99( 96.43%)
   188. (0.00000) RY*(23) O   5           s(  0.17%)p 4.14(  0.69%)d 7.55(  1.26%)
                                                  f99.99( 97.89%)
   189. (0.00000) RY*(24) O   5           s(  0.16%)p24.80(  3.87%)d 7.72(  1.20%)
                                                  f99.99( 94.77%)
   190. (0.00000) RY*(25) O   5           s(  0.19%)p 1.82(  0.35%)d 5.51(  1.06%)
                                                  f99.99( 98.40%)
   191. (0.00000) RY*(26) O   5           s(  0.14%)p 9.26(  1.32%)d14.94(  2.13%)
                                                  f99.99( 96.41%)
   192. (0.00731) RY*( 1) C   6           s(  0.81%)p99.99( 92.40%)d 8.26(  6.66%)
                                                  f 0.16(  0.13%)
                                            0.0000  0.0089  0.0694  0.0562 -0.0035
                                            0.0146 -0.9418  0.0284  0.0007  0.0106
                                           -0.0020  0.0016  0.1867  0.0317  0.0137
                                           -0.0467 -0.1049  0.1840  0.0384  0.0146
                                           -0.0008  0.0545 -0.0686 -0.1003 -0.0081
                                           -0.0243  0.0085 -0.0016  0.0143 -0.0194
                                            0.0038
   193. (0.00604) RY*( 2) C   6           s(  3.05%)p25.00( 76.27%)d 6.76( 20.61%)
                                                  f 0.02(  0.06%)
                                            0.0000  0.0054  0.1691  0.0435  0.0025
                                            0.0031 -0.1925 -0.0170 -0.0000  0.1741
                                           -0.0014  0.0013 -0.8315 -0.0609 -0.0080
                                            0.0187  0.1782 -0.1596 -0.0474  0.0602
                                           -0.2133  0.1194  0.2173 -0.1889 -0.0096
                                            0.0049 -0.0026  0.0143 -0.0068  0.0141
                                           -0.0067
   194. (0.00179) RY*( 3) C   6           s( 13.56%)p 1.89( 25.63%)d 4.42( 59.94%)
                                                  f 0.06(  0.86%)
                                            0.0000 -0.0001  0.3671 -0.0288 -0.0026
                                           -0.0042  0.0350 -0.0128  0.0027 -0.0175
                                            0.0431 -0.0075  0.4283 -0.2631  0.0266
                                           -0.0006  0.2483 -0.0032 -0.1746  0.0320
                                           -0.4139  0.0416  0.5700 -0.0875  0.0619
                                           -0.0023 -0.0465  0.0370 -0.0091  0.0315
                                           -0.0139
   195. (0.00142) RY*( 4) C   6           s(  1.94%)p10.26( 19.92%)d39.36( 76.45%)
                                                  f 0.87(  1.69%)
                                           -0.0000 -0.0029  0.1381 -0.0180  0.0049
                                           -0.0123  0.1110  0.0216  0.0000  0.3511
                                           -0.0323  0.0067 -0.0238  0.2478  0.1490
                                           -0.0204 -0.7938  0.1250 -0.0735  0.0113
                                           -0.1705  0.0096  0.2479 -0.0023 -0.0172
                                            0.0480  0.0554 -0.0722 -0.0258  0.0724
                                            0.0092
   196. (0.00109) RY*( 5) C   6           s(  6.86%)p 9.35( 64.13%)d 4.15( 28.46%)
                                                  f 0.08(  0.55%)
                                            0.0000  0.0014  0.2587 -0.0408 -0.0068
                                            0.0092  0.0430  0.1873  0.0013  0.7613
                                            0.0527  0.0003  0.1464 -0.0206 -0.3863
                                           -0.0329  0.1959 -0.0279 -0.0860  0.0449
                                            0.1506 -0.0108 -0.2504  0.0163  0.0056
                                           -0.0514  0.0309  0.0346  0.0140 -0.0202
                                           -0.0061
   197. (0.00092) RY*( 6) C   6           s( 66.73%)p 0.24( 16.31%)d 0.24( 15.71%)
                                                  f 0.02(  1.24%)
                                            0.0000  0.0005  0.8088 -0.1148 -0.0035
                                            0.0108  0.0719 -0.3103 -0.0017 -0.2387
                                           -0.0319  0.0058 -0.0580  0.0131  0.1158
                                            0.0130 -0.0658  0.0366  0.1311  0.0054
                                            0.1744 -0.0662 -0.2927 -0.0157 -0.0734
                                           -0.0640  0.0287  0.0030  0.0221  0.0394
                                            0.0075
   198. (0.00037) RY*( 7) C   6           s(  0.80%)p20.61( 16.50%)d99.99( 82.55%)
                                                  f 0.18(  0.15%)
                                            0.0000 -0.0010  0.0868 -0.0216  0.0024
                                            0.0011  0.0045  0.3919  0.0040  0.0552
                                            0.0827  0.0004 -0.0174  0.0351  0.3941
                                            0.2849  0.0989  0.0437 -0.1426 -0.6731
                                            0.1820 -0.1270  0.0127 -0.2334  0.0015
                                           -0.0118 -0.0274 -0.0061  0.0197  0.0114
                                           -0.0013
   199. (0.00033) RY*( 8) C   6           s(  1.26%)p19.59( 24.60%)d58.20( 73.08%)
                                                  f 0.85(  1.06%)
                                            0.0000 -0.0013  0.1107 -0.0175  0.0027
                                            0.0013  0.0018  0.4745  0.0061 -0.0193
                                            0.1208  0.0008 -0.0351  0.0682  0.4221
                                            0.1251  0.1178  0.0999 -0.0181  0.5786
                                            0.2465  0.1522  0.0889  0.2936 -0.0125
                                           -0.0050 -0.0553 -0.0058  0.0493  0.0314
                                            0.0627
   200. (0.00024) RY*( 9) C   6           s( 24.27%)p 1.52( 36.98%)d 1.39( 33.74%)
                                                  f 0.21(  5.01%)
                                            0.0000 -0.0013  0.0787  0.4830 -0.0567
                                            0.0112  0.1376  0.0676 -0.0004 -0.0236
                                           -0.0728  0.0000  0.1112  0.5727  0.0641
                                           -0.0338  0.2312  0.0997  0.1243  0.0452
                                           -0.3167  0.2195 -0.1741 -0.2691 -0.0605
                                            0.0860  0.0821 -0.0788  0.0320 -0.1514
                                            0.0464
   201. (0.00016) RY*(10) C   6           s(  5.07%)p 9.11( 46.19%)d 7.83( 39.70%)
                                                  f 1.79(  9.05%)
                                            0.0000  0.0018  0.0301  0.2128 -0.0670
                                            0.0100  0.1440  0.3182 -0.0027 -0.0807
                                            0.0795  0.0000 -0.0953 -0.5638 -0.0404
                                           -0.1489 -0.2077  0.3702  0.1734  0.0085
                                           -0.2267  0.0990 -0.2751 -0.1612  0.1848
                                           -0.1687 -0.0918 -0.0470  0.0860 -0.0937
                                            0.0334
   202. (0.00013) RY*(11) C   6           s( 47.45%)p 0.08(  3.98%)d 0.95( 45.19%)
                                                  f 0.07(  3.38%)
                                           -0.0000 -0.0052  0.1505  0.6686  0.0695
                                           -0.0018 -0.0052  0.0750 -0.0037 -0.1325
                                           -0.0295  0.0047  0.0081 -0.1249 -0.2134
                                           -0.1425 -0.1492 -0.2261 -0.1487 -0.0807
                                            0.4634  0.1077  0.2348  0.0502  0.0388
                                            0.1228 -0.0083 -0.0413 -0.0989  0.0686
                                           -0.0316
   203. (0.00012) RY*(12) C   6           s( 12.57%)p 4.80( 60.33%)d 2.14( 26.84%)
                                                  f 0.02(  0.26%)
                                           -0.0000 -0.0000 -0.1401  0.3235  0.0372
                                            0.0004  0.0067 -0.5437  0.0078  0.3176
                                            0.3819  0.0048  0.0721 -0.2357  0.3833
                                            0.3088  0.0276  0.0101  0.0339  0.0626
                                            0.0446  0.1017 -0.0887 -0.0082  0.0146
                                           -0.0058 -0.0324 -0.0209  0.0177 -0.0199
                                           -0.0134
   204. (0.00009) RY*(13) C   6           s(  2.41%)p 4.38( 10.57%)d32.35( 78.02%)
                                                  f 3.73(  9.00%)
   205. (0.00006) RY*(14) C   6           s(  8.90%)p 0.40(  3.60%)d 9.68( 86.10%)
                                                  f 0.16(  1.41%)
   206. (0.00002) RY*(15) C   6           s(  1.34%)p 6.64(  8.89%)d50.15( 67.13%)
                                                  f16.91( 22.64%)
   207. (0.00000) RY*(16) C   6           s(  0.85%)p93.34( 79.03%)d23.38( 19.79%)
                                                  f 0.39(  0.33%)
   208. (0.00000) RY*(17) C   6           s(  1.79%)p 0.61(  1.10%)d54.29( 97.08%)
                                                  f 0.02(  0.03%)
   209. (0.00000) RY*(18) C   6           s(  0.08%)p30.60(  2.35%)d99.99( 97.45%)
                                                  f 1.63(  0.12%)
   210. (0.00000) RY*(19) C   6           s( 96.57%)p 0.01(  0.60%)d 0.03(  2.77%)
                                                  f 0.00(  0.06%)
   211. (0.00001) RY*(20) C   6           s(  1.62%)p 2.63(  4.27%)d 8.52( 13.84%)
                                                  f49.43( 80.27%)
   212. (0.00000) RY*(21) C   6           s(  0.49%)p 7.54(  3.71%)d19.46(  9.57%)
                                                  f99.99( 86.23%)
   213. (0.00000) RY*(22) C   6           s(  0.03%)p55.40(  1.59%)d99.99(  5.32%)
                                                  f99.99( 93.07%)
   214. (0.00001) RY*(23) C   6           s(  0.79%)p 0.51(  0.41%)d 7.34(  5.83%)
                                                  f99.99( 92.97%)
   215. (0.00000) RY*(24) C   6           s(  0.04%)p 7.26(  0.30%)d75.71(  3.14%)
                                                  f99.99( 96.52%)
   216. (0.00001) RY*(25) C   6           s(  0.73%)p 0.22(  0.16%)d 5.67(  4.14%)
                                                  f99.99( 94.97%)
   217. (0.00000) RY*(26) C   6           s(  0.02%)p21.25(  0.35%)d44.03(  0.72%)
                                                  f99.99( 98.91%)
   218. (0.00468) RY*( 1) C   7           s(  0.72%)p99.99( 86.08%)d17.90( 12.95%)
                                                  f 0.34(  0.25%)
                                           -0.0000 -0.0006  0.0782  0.0335  0.0027
                                            0.0117  0.4594  0.0260 -0.0053 -0.2038
                                           -0.0132  0.0208  0.7769  0.0565  0.0400
                                           -0.0432 -0.1444  0.2471  0.0126 -0.0636
                                           -0.0576 -0.0893  0.0206  0.1680  0.0246
                                           -0.0180 -0.0036 -0.0206  0.0167 -0.0261
                                            0.0119
   219. (0.00186) RY*( 2) C   7           s(  0.27%)p99.99( 89.53%)d36.66( 10.02%)
                                                  f 0.66(  0.18%)
                                           -0.0000 -0.0070 -0.0151  0.0484 -0.0108
                                           -0.0238  0.8050  0.1604 -0.0003  0.0497
                                            0.0100  0.0072 -0.4655 -0.0402  0.0648
                                            0.0055 -0.0597 -0.0037 -0.0156  0.0133
                                           -0.2128  0.0975  0.1622 -0.1042  0.0058
                                            0.0070  0.0090 -0.0315  0.0101 -0.0194
                                            0.0130
   220. (0.00127) RY*( 3) C   7           s( 51.41%)p 0.10(  5.24%)d 0.81( 41.85%)
                                                  f 0.03(  1.49%)
                                           -0.0000  0.0008  0.7054 -0.1282  0.0080
                                            0.0014 -0.1667  0.0830 -0.0017 -0.0470
                                           -0.0056  0.0014  0.0763  0.0985  0.0149
                                           -0.0184  0.0732  0.0133 -0.1071  0.0967
                                           -0.2843  0.1180  0.4328 -0.3309  0.0637
                                            0.0657 -0.0215 -0.0521  0.0004 -0.0523
                                            0.0255
   221. (0.00096) RY*( 4) C   7           s(  0.23%)p99.99( 73.64%)d99.99( 25.56%)
                                                  f 2.42(  0.56%)
                                           -0.0000 -0.0004  0.0476 -0.0086  0.0000
                                           -0.0015  0.0743 -0.0196  0.0176  0.7756
                                           -0.3081  0.0053  0.1700 -0.0692 -0.3633
                                           -0.2564 -0.0338 -0.0703  0.1728  0.1233
                                           -0.0163 -0.0071  0.0666  0.0451  0.0247
                                           -0.0039  0.0434  0.0023 -0.0532 -0.0162
                                           -0.0060
   222. (0.00081) RY*( 5) C   7           s(  9.82%)p 1.08( 10.59%)d 7.98( 78.37%)
                                                  f 0.12(  1.22%)
                                            0.0000  0.0083 -0.0787  0.3032 -0.0004
                                            0.0238 -0.2354  0.0947  0.0035  0.1143
                                           -0.0320 -0.0197 -0.1367  0.0882  0.1795
                                           -0.1420 -0.5969  0.5755  0.0729 -0.0376
                                           -0.0897  0.1216  0.0483 -0.1092  0.0171
                                           -0.0699 -0.0105  0.0149  0.0476 -0.0662
                                            0.0041
   223. (0.00057) RY*( 6) C   7           s(  0.09%)p99.99( 15.66%)d99.99( 81.37%)
                                                  f30.43(  2.87%)
                                            0.0000  0.0009  0.0228  0.0205 -0.0009
                                            0.0004 -0.0189  0.0021  0.0134 -0.3540
                                           -0.1318  0.0022 -0.1132 -0.0250 -0.6410
                                           -0.1735 -0.2090  0.0332 -0.3756  0.2953
                                           -0.1933  0.0561 -0.2024  0.1350 -0.0325
                                           -0.0463 -0.0477 -0.0146 -0.1104 -0.0167
                                            0.1026
   224. (0.00031) RY*( 7) C   7           s( 40.25%)p 0.18(  7.12%)d 1.25( 50.49%)
                                                  f 0.05(  2.14%)
                                            0.0000  0.0003  0.6327  0.0425 -0.0202
                                           -0.0303  0.1195  0.0364  0.0018  0.0243
                                           -0.0267 -0.0047 -0.1966  0.1212  0.0170
                                           -0.0215  0.0093  0.1547  0.1920 -0.0668
                                            0.2914 -0.1041 -0.5704  0.1333 -0.1232
                                            0.0130  0.0752  0.0071  0.0081  0.0118
                                           -0.0130
   225. (0.00013) RY*( 8) C   7           s( 61.08%)p 0.09(  5.32%)d 0.43( 26.01%)
                                                  f 0.12(  7.59%)
                                            0.0000 -0.0104  0.0254  0.7807  0.0239
                                           -0.0159  0.0384  0.1545  0.0027 -0.0078
                                           -0.0333 -0.0000  0.1322  0.0948 -0.0577
                                            0.0273  0.2054 -0.1644 -0.1695  0.0798
                                            0.2568  0.1983  0.0488 -0.2098 -0.1429
                                            0.0316 -0.0247  0.1964 -0.0622  0.0779
                                           -0.0731
   226. (0.00009) RY*( 9) C   7           s(  2.71%)p14.37( 38.91%)d19.07( 51.62%)
                                                  f 2.50(  6.76%)
   227. (0.00005) RY*(10) C   7           s(  2.45%)p 1.88(  4.61%)d23.07( 56.60%)
                                                  f14.81( 36.34%)
   228. (0.00003) RY*(11) C   7           s( 17.10%)p 2.92( 49.94%)d 1.20( 20.54%)
                                                  f 0.73( 12.41%)
   229. (0.00003) RY*(12) C   7           s(  3.49%)p 1.19(  4.14%)d13.62( 47.49%)
                                                  f12.87( 44.89%)
   230. (0.00001) RY*(13) C   7           s(  4.79%)p 9.75( 46.68%)d 7.65( 36.61%)
                                                  f 2.49( 11.92%)
   231. (0.00001) RY*(14) C   7           s(  0.64%)p25.91( 16.53%)d99.99( 79.22%)
                                                  f 5.67(  3.62%)
   232. (0.00000) RY*(15) C   7           s(  0.04%)p67.70(  2.48%)d99.99( 97.28%)
                                                  f 5.47(  0.20%)
   233. (0.00000) RY*(16) C   7           s(  0.60%)p 5.23(  3.13%)d99.99( 94.91%)
                                                  f 2.27(  1.36%)
   234. (0.00000) RY*(17) C   7           s(  2.95%)p 5.34( 15.74%)d25.77( 75.95%)
                                                  f 1.82(  5.37%)
   235. (0.00000) RY*(18) C   7           s(  0.07%)p99.99( 93.36%)d86.85(  6.27%)
                                                  f 4.04(  0.29%)
   236. (0.00000) RY*(19) C   7           s(  0.49%)p23.96( 11.65%)d99.99( 85.19%)
                                                  f 5.50(  2.67%)
   237. (0.00001) RY*(20) C   7           s(  2.70%)p 1.97(  5.33%)d 3.29(  8.87%)
                                                  f30.80( 83.11%)
   238. (0.00000) RY*(21) C   7           s( 94.47%)p 0.00(  0.04%)d 0.02(  1.85%)
                                                  f 0.04(  3.64%)
   239. (0.00000) RY*(22) C   7           s(  0.10%)p18.39(  1.77%)d20.49(  1.97%)
                                                  f99.99( 96.16%)
   240. (0.00000) RY*(23) C   7           s(  2.98%)p 1.25(  3.71%)d 0.41(  1.22%)
                                                  f30.95( 92.10%)
   241. (0.00000) RY*(24) C   7           s(  0.12%)p 6.67(  0.79%)d23.87(  2.85%)
                                                  f99.99( 96.24%)
   242. (0.00000) RY*(25) C   7           s(  0.01%)p99.99(  8.30%)d99.99(  3.30%)
                                                  f99.99( 88.38%)
   243. (0.00000) RY*(26) C   7           s(  0.48%)p 0.31(  0.15%)d 2.51(  1.21%)
                                                  f99.99( 98.16%)
   244. (0.00485) RY*( 1) C   8           s(  1.65%)p49.55( 81.68%)d10.01( 16.49%)
                                                  f 0.11(  0.18%)
                                           -0.0000  0.0070  0.1252  0.0277  0.0008
                                           -0.0154 -0.6506 -0.0529 -0.0035 -0.0967
                                           -0.0006  0.0203  0.6168  0.0170 -0.0199
                                            0.0763  0.1360 -0.3596  0.0177 -0.0011
                                           -0.0858  0.0385 -0.0148  0.0392  0.0042
                                           -0.0105  0.0048 -0.0163 -0.0048  0.0366
                                           -0.0027
   245. (0.00214) RY*( 2) C   8           s(  0.88%)p99.99( 88.66%)d11.64( 10.21%)
                                                  f 0.29(  0.25%)
                                            0.0000 -0.0043  0.0928  0.0113  0.0025
                                            0.0240 -0.6089 -0.2029 -0.0049  0.1914
                                            0.0376  0.0147 -0.6504 -0.1129 -0.0070
                                           -0.0121  0.0576  0.0088 -0.0798  0.0428
                                           -0.0814  0.0671  0.2353 -0.1543  0.0403
                                           -0.0149 -0.0174 -0.0166  0.0075 -0.0018
                                            0.0043
   246. (0.00088) RY*( 3) C   8           s( 53.44%)p 0.14(  7.51%)d 0.71( 37.99%)
                                                  f 0.02(  1.06%)
                                            0.0000 -0.0034  0.7277 -0.0690  0.0077
                                            0.0226 -0.1084  0.0216 -0.0034  0.0674
                                           -0.0573  0.0096 -0.0908  0.2150 -0.0065
                                           -0.0101 -0.1728  0.1572  0.0782 -0.0745
                                            0.2820 -0.2584 -0.2999  0.2781 -0.0713
                                           -0.0220  0.0495 -0.0052  0.0210 -0.0447
                                            0.0100
   247. (0.00085) RY*( 4) C   8           s( 34.90%)p 0.36( 12.63%)d 1.42( 49.48%)
                                                  f 0.09(  2.99%)
                                            0.0000 -0.0031  0.5669 -0.1662  0.0004
                                           -0.0203  0.2654 -0.1208  0.0075  0.0216
                                           -0.0095 -0.0255  0.1987  0.0079  0.0119
                                           -0.0411 -0.0440  0.0576 -0.0865  0.1103
                                           -0.2399  0.2154  0.4124 -0.4406  0.0681
                                           -0.0944 -0.0337 -0.0128 -0.0054  0.1206
                                           -0.0219
   248. (0.00068) RY*( 5) C   8           s(  0.71%)p99.99( 77.53%)d29.65( 21.18%)
                                                  f 0.81(  0.58%)
                                            0.0000 -0.0006  0.0842  0.0071  0.0000
                                           -0.0008 -0.0361 -0.0074 -0.0072 -0.8411
                                            0.1786 -0.0035 -0.1800  0.0465  0.3000
                                           -0.1671  0.0400 -0.0269 -0.2842  0.0139
                                           -0.0311 -0.0065 -0.0923 -0.0324  0.0175
                                            0.0179  0.0142  0.0067  0.0648  0.0259
                                           -0.0066
   249. (0.00020) RY*( 6) C   8           s(  5.53%)p 1.23(  6.78%)d15.61( 86.35%)
                                                  f 0.24(  1.34%)
                                            0.0000 -0.0008  0.0757  0.2227 -0.0021
                                            0.0031  0.0303 -0.0688 -0.0023 -0.1995
                                            0.1422 -0.0039 -0.0437  0.0139  0.0407
                                            0.6822  0.1010  0.1793  0.3073  0.4055
                                            0.1123  0.2204  0.1082  0.1493  0.0252
                                            0.0181 -0.0001 -0.0593 -0.0682 -0.0497
                                           -0.0422
   250. (0.00016) RY*( 7) C   8           s( 38.53%)p 0.30( 11.63%)d 1.07( 41.25%)
                                                  f 0.22(  8.59%)
                                            0.0000  0.0035  0.2316  0.5750 -0.0327
                                            0.0137  0.2272 -0.2287  0.0044  0.0680
                                           -0.0264 -0.0178 -0.0656 -0.0472 -0.1524
                                           -0.1429  0.5336 -0.1954 -0.0713 -0.1367
                                           -0.0517  0.0476 -0.1289  0.0241  0.0288
                                            0.2537  0.0031 -0.0952 -0.0367 -0.0773
                                            0.0656
   251. (0.00012) RY*( 8) C   8           s( 42.10%)p 0.19(  8.06%)d 1.12( 47.01%)
                                                  f 0.07(  2.83%)
                                            0.0000 -0.0119 -0.0340  0.6437  0.0736
                                           -0.0039 -0.1285 -0.0476 -0.0002  0.0024
                                            0.0005  0.0056  0.1958 -0.1529  0.0535
                                           -0.1599 -0.5055  0.2950 -0.1139 -0.0251
                                            0.2289  0.0508  0.0835 -0.1536  0.0993
                                           -0.0590 -0.0757  0.0378  0.0489 -0.0693
                                            0.0238
   252. (0.00006) RY*( 9) C   8           s(  3.93%)p 3.16( 12.43%)d19.85( 78.03%)
                                                  f 1.43(  5.60%)
   253. (0.00004) RY*(10) C   8           s(  6.77%)p 5.33( 36.08%)d 8.21( 55.61%)
                                                  f 0.23(  1.53%)
   254. (0.00003) RY*(11) C   8           s(  1.79%)p19.19( 34.40%)d35.01( 62.75%)
                                                  f 0.59(  1.05%)
   255. (0.00000) RY*(12) C   8           s( 98.81%)p 0.00(  0.25%)d 0.01(  0.88%)
                                                  f 0.00(  0.05%)
   256. (0.00001) RY*(13) C   8           s(  2.81%)p27.20( 76.48%)d 7.35( 20.67%)
                                                  f 0.01(  0.04%)
   257. (0.00000) RY*(14) C   8           s(  0.07%)p99.99(  6.79%)d99.99( 93.12%)
                                                  f 0.34(  0.02%)
   258. (0.00000) RY*(15) C   8           s(  0.23%)p 9.40(  2.20%)d99.99( 97.53%)
                                                  f 0.16(  0.04%)
   259. (0.00000) RY*(16) C   8           s(  0.06%)p99.99( 12.11%)d99.99( 87.61%)
                                                  f 3.61(  0.22%)
   260. (0.00000) RY*(17) C   8           s(  1.92%)p 0.11(  0.21%)d50.90( 97.84%)
                                                  f 0.02(  0.03%)
   261. (0.00000) RY*(18) C   8           s(  0.04%)p99.99( 97.61%)d52.48(  2.32%)
                                                  f 0.55(  0.02%)
   262. (0.00001) RY*(19) C   8           s(  1.00%)p25.06( 25.05%)d73.70( 73.70%)
                                                  f 0.25(  0.25%)
   263. (0.00000) RY*(20) C   8           s(  1.01%)p 0.13(  0.13%)d 2.03(  2.05%)
                                                  f95.82( 96.81%)
   264. (0.00000) RY*(21) C   8           s(  1.75%)p 0.63(  1.11%)d 4.46(  7.81%)
                                                  f51.10( 89.34%)
   265. (0.00000) RY*(22) C   8           s(  0.36%)p 0.37(  0.14%)d 3.90(  1.42%)
                                                  f99.99( 98.09%)
   266. (0.00000) RY*(23) C   8           s(  0.52%)p 0.33(  0.17%)d 4.35(  2.26%)
                                                  f99.99( 97.05%)
   267. (0.00000) RY*(24) C   8           s(  0.01%)p 1.00(  0.27%)d 4.35(  1.16%)
                                                  f99.99( 98.57%)
   268. (0.00000) RY*(25) C   8           s(  1.03%)p 0.40(  0.42%)d 4.21(  4.33%)
                                                  f91.67( 94.23%)
   269. (0.00000) RY*(26) C   8           s(  0.19%)p 0.47(  0.09%)d 2.84(  0.54%)
                                                  f99.99( 99.19%)
   270. (0.00478) RY*( 1) C   9           s(  3.25%)p25.74( 83.58%)d 4.05( 13.15%)
                                                  f 0.01(  0.02%)
                                           -0.0000  0.0054  0.1600  0.0826  0.0050
                                           -0.0265 -0.8875 -0.0239  0.0030  0.0997
                                            0.0023 -0.0054 -0.1920 -0.0039  0.0176
                                           -0.0577 -0.0355  0.1459  0.0128  0.0388
                                           -0.0786  0.2029  0.0199 -0.2365  0.0067
                                            0.0083 -0.0047 -0.0010 -0.0044  0.0050
                                           -0.0009
   271. (0.00201) RY*( 2) C   9           s(  0.00%)p 1.00( 85.37%)d 0.17( 14.20%)
                                                  f 0.00(  0.42%)
                                            0.0000 -0.0003  0.0042  0.0004 -0.0000
                                           -0.0051  0.2052  0.0511 -0.0047  0.1808
                                            0.0493  0.0225 -0.8470 -0.2363  0.0452
                                           -0.0432 -0.2396  0.2256  0.0398 -0.0375
                                            0.0675 -0.0663 -0.0956  0.0935 -0.0329
                                            0.0341  0.0019  0.0386 -0.0135 -0.0158
                                           -0.0082
   272. (0.00081) RY*( 3) C   9           s( 60.22%)p 0.03(  1.53%)d 0.60( 36.39%)
                                                  f 0.03(  1.87%)
                                            0.0000 -0.0053  0.7389 -0.2370  0.0081
                                           -0.0060 -0.0355 -0.1003  0.0010  0.0583
                                            0.0001 -0.0007  0.0091 -0.0219 -0.1113
                                            0.0631  0.2127 -0.1177  0.0836 -0.0219
                                            0.2254 -0.1819 -0.3999  0.1928  0.0657
                                            0.0947 -0.0265 -0.0603 -0.0195 -0.0134
                                            0.0216
   273. (0.00068) RY*( 4) C   9           s(  0.00%)p 1.00( 19.80%)d 3.96( 78.37%)
                                                  f 0.09(  1.83%)
                                           -0.0000  0.0002 -0.0014  0.0038  0.0004
                                            0.0083 -0.0882  0.0491  0.0079 -0.0790
                                            0.0253 -0.0373  0.4013 -0.1355  0.0906
                                           -0.1161 -0.4916  0.6017  0.0820 -0.0976
                                            0.1411 -0.1637 -0.1990  0.2360  0.0017
                                            0.0382 -0.0500  0.1086 -0.0189 -0.0392
                                           -0.0249
   274. (0.00042) RY*( 5) C   9           s(  0.42%)p99.99( 72.26%)d64.81( 27.10%)
                                                  f 0.52(  0.22%)
                                           -0.0000 -0.0010  0.0596  0.0251 -0.0001
                                            0.0000 -0.0524  0.0035 -0.0007 -0.7929
                                            0.2398 -0.0001 -0.1780  0.0453  0.4568
                                           -0.1136  0.1255 -0.0365  0.0270 -0.1271
                                            0.1011 -0.0649 -0.0083 -0.0321  0.0127
                                           -0.0101  0.0242 -0.0046 -0.0179 -0.0155
                                           -0.0271
   275. (0.00030) RY*( 6) C   9           s(  0.02%)p43.37(  1.07%)d99.99( 98.90%)
                                                  f 0.52(  0.01%)
                                            0.0000 -0.0002  0.0091  0.0128  0.0004
                                            0.0001 -0.0060 -0.0018  0.0007 -0.0961
                                            0.0294  0.0002 -0.0219  0.0074 -0.0641
                                           -0.2022  0.0236  0.0005  0.5139  0.7161
                                            0.1203  0.1435  0.2072  0.2976  0.0008
                                           -0.0066  0.0009 -0.0012 -0.0081 -0.0037
                                            0.0012
   276. (0.00014) RY*( 7) C   9           s( 19.52%)p 1.21( 23.62%)d 2.71( 52.84%)
                                                  f 0.21(  4.02%)
                                            0.0000  0.0104  0.4265 -0.0571 -0.0998
                                            0.0162  0.2358 -0.3987 -0.0020 -0.0353
                                            0.0620  0.0034  0.0598 -0.1126  0.1210
                                           -0.0482 -0.1921  0.1184  0.0713  0.0059
                                           -0.6005  0.1891  0.2016 -0.1361 -0.0591
                                           -0.0803  0.0159  0.0599 -0.0210  0.1544
                                           -0.0465
   277. (0.00010) RY*( 8) C   9           s( 78.64%)p 0.01(  0.50%)d 0.18( 14.06%)
                                                  f 0.09(  6.80%)
   278. (0.00006) RY*( 9) C   9           s(  0.24%)p99.99( 48.54%)d57.42( 13.78%)
                                                  f99.99( 37.44%)
   279. (0.00004) RY*(10) C   9           s(  0.18%)p 3.71(  0.65%)d99.99( 84.47%)
                                                  f83.34( 14.70%)
   280. (0.00004) RY*(11) C   9           s( 15.59%)p 0.87( 13.53%)d 4.37( 68.12%)
                                                  f 0.18(  2.76%)
   281. (0.00000) RY*(12) C   9           s(  0.33%)p99.99( 96.79%)d 6.05(  2.02%)
                                                  f 2.57(  0.86%)
   282. (0.00000) RY*(13) C   9           s( 96.91%)p 0.00(  0.13%)d 0.03(  2.96%)
                                                  f 0.00(  0.00%)
   283. (0.00000) RY*(14) C   9           s(  0.60%)p 3.73(  2.23%)d99.99( 97.12%)
                                                  f 0.09(  0.06%)
   284. (0.00001) RY*(15) C   9           s( 11.55%)p 5.93( 68.54%)d 1.63( 18.82%)
                                                  f 0.09(  1.08%)
   285. (0.00000) RY*(16) C   9           s(  0.12%)p99.99( 25.36%)d99.99( 74.45%)
                                                  f 0.52(  0.06%)
   286. (0.00000) RY*(17) C   9           s(  3.57%)p 1.22(  4.36%)d25.78( 92.04%)
                                                  f 0.01(  0.03%)
   287. (0.00000) RY*(18) C   9           s(  0.07%)p24.91(  1.74%)d99.99( 98.13%)
                                                  f 0.90(  0.06%)
   288. (0.00001) RY*(19) C   9           s(  3.23%)p 1.53(  4.92%)d28.44( 91.80%)
                                                  f 0.01(  0.05%)
   289. (0.00000) RY*(20) C   9           s(  2.09%)p13.16( 27.49%)d 2.75(  5.75%)
                                                  f30.95( 64.67%)
   290. (0.00000) RY*(21) C   9           s(  1.36%)p 7.55( 10.29%)d 6.47(  8.82%)
                                                  f58.37( 79.53%)
   291. (0.00000) RY*(22) C   9           s(  0.17%)p 8.08(  1.38%)d10.27(  1.75%)
                                                  f99.99( 96.70%)
   292. (0.00000) RY*(23) C   9           s(  1.44%)p 3.06(  4.41%)d 0.48(  0.70%)
                                                  f64.67( 93.44%)
   293. (0.00000) RY*(24) C   9           s(  0.11%)p 9.23(  1.01%)d10.85(  1.19%)
                                                  f99.99( 97.70%)
   294. (0.00000) RY*(25) C   9           s(  0.36%)p 3.02(  1.07%)d 6.79(  2.41%)
                                                  f99.99( 96.16%)
   295. (0.00000) RY*(26) C   9           s(  0.06%)p 3.95(  0.24%)d 3.90(  0.24%)
                                                  f99.99( 99.46%)
   296. (0.00489) RY*( 1) C  10           s(  1.12%)p73.66( 82.24%)d14.77( 16.49%)
                                                  f 0.14(  0.15%)
                                           -0.0000  0.0068  0.1014  0.0289 -0.0014
                                           -0.0059 -0.2963 -0.0309  0.0059  0.2068
                                            0.0123 -0.0245 -0.8298 -0.0386  0.0249
                                           -0.0357 -0.0992  0.2167  0.0566 -0.0941
                                           -0.0115 -0.1167 -0.1139  0.2597 -0.0032
                                            0.0110 -0.0092  0.0236 -0.0141  0.0202
                                           -0.0116
   297. (0.00218) RY*( 2) C  10           s(  1.28%)p69.81( 89.66%)d 6.92(  8.88%)
                                                  f 0.13(  0.17%)
                                            0.0000 -0.0051  0.1132 -0.0008  0.0018
                                            0.0288 -0.8600 -0.2256 -0.0008 -0.0136
                                            0.0139 -0.0046  0.3236  0.0125  0.0462
                                           -0.0286 -0.2131  0.1074 -0.0394  0.0270
                                           -0.0052  0.0322  0.1270 -0.0973 -0.0222
                                            0.0294  0.0133 -0.0025 -0.0078 -0.0109
                                            0.0018
   298. (0.00093) RY*( 3) C  10           s( 68.32%)p 0.07(  5.11%)d 0.38( 25.65%)
                                                  f 0.01(  0.92%)
                                            0.0000 -0.0037  0.8212 -0.0936  0.0107
                                            0.0165 -0.0507  0.0633 -0.0016  0.0310
                                            0.0513  0.0023 -0.0010 -0.2016 -0.1007
                                            0.0857  0.3561 -0.3186 -0.0522  0.0445
                                            0.0463 -0.0612 -0.0080  0.0065  0.0086
                                           -0.0747 -0.0098  0.0315  0.0338 -0.0359
                                           -0.0059
   299. (0.00079) RY*( 4) C  10           s( 18.33%)p 0.70( 12.76%)d 3.60( 66.06%)
                                                  f 0.16(  2.85%)
                                            0.0000 -0.0028  0.3978 -0.1581 -0.0066
                                           -0.0333  0.3206 -0.1222 -0.0009  0.0563
                                            0.0143  0.0144 -0.0698 -0.0181  0.0976
                                           -0.1038 -0.4084  0.4188 -0.0843  0.0814
                                           -0.1916  0.1850  0.2995 -0.3517 -0.0877
                                            0.0551  0.0311  0.0518 -0.0547  0.0977
                                           -0.0398
   300. (0.00067) RY*( 5) C  10           s(  0.33%)p99.99( 75.58%)d71.78( 23.48%)
                                                  f 1.88(  0.61%)
                                            0.0000 -0.0004  0.0564  0.0095  0.0004
                                           -0.0022 -0.0342 -0.0077 -0.0076 -0.8306
                                            0.1642 -0.0006 -0.1929  0.0203  0.1357
                                           -0.1826  0.0391 -0.0262  0.3664 -0.0556
                                            0.0944 -0.0233  0.1765 -0.0540 -0.0196
                                           -0.0169 -0.0231 -0.0053 -0.0607 -0.0072
                                            0.0344
   301. (0.00019) RY*( 6) C  10           s(  0.20%)p36.90(  7.43%)d99.99( 91.59%)
                                                  f 3.86(  0.78%)
                                            0.0000 -0.0003 -0.0007  0.0447  0.0035
                                           -0.0008 -0.0123 -0.0143 -0.0016 -0.2424
                                            0.1070 -0.0002 -0.0613 -0.0000  0.2533
                                            0.8442  0.0365  0.1664 -0.2588 -0.1504
                                           -0.0347  0.0797 -0.0932 -0.0651  0.0159
                                            0.0176  0.0205 -0.0223  0.0164 -0.0163
                                           -0.0759
   302. (0.00014) RY*( 7) C  10           s( 37.57%)p 0.29( 10.90%)d 1.17( 43.93%)
                                                  f 0.20(  7.60%)
                                            0.0000  0.0044  0.2739  0.5466 -0.0435
                                            0.0076  0.1600 -0.1817 -0.0045 -0.0263
                                           -0.0008  0.0226  0.2035 -0.0879  0.0712
                                           -0.0526 -0.3028  0.1323  0.1717 -0.0860
                                            0.2221  0.0025 -0.4604  0.1553  0.1676
                                            0.1690 -0.0958 -0.0578 -0.0314 -0.0686
                                            0.0329
   303. (0.00012) RY*( 8) C  10           s( 47.62%)p 0.18(  8.47%)d 0.84( 40.23%)
                                                  f 0.08(  3.68%)
                                            0.0000 -0.0114 -0.0315  0.6860  0.0662
                                            0.0040 -0.0255 -0.1204  0.0025  0.0813
                                           -0.0808 -0.0046 -0.1886  0.1443 -0.0600
                                           -0.0466  0.3428 -0.0215 -0.1598  0.0696
                                            0.1102  0.1661  0.3317 -0.3138 -0.1357
                                            0.0912  0.0738  0.0074 -0.0031 -0.0618
                                            0.0278
   304. (0.00007) RY*( 9) C  10           s(  1.22%)p13.37( 16.26%)d61.68( 75.05%)
                                                  f 6.15(  7.48%)
   305. (0.00005) RY*(10) C  10           s( 10.15%)p 3.76( 38.17%)d 4.86( 49.32%)
                                                  f 0.23(  2.36%)
   306. (0.00003) RY*(11) C  10           s(  3.49%)p 6.63( 23.14%)d19.76( 68.97%)
                                                  f 1.26(  4.40%)
   307. (0.00001) RY*(12) C  10           s(  5.52%)p14.02( 77.34%)d 2.55( 14.08%)
                                                  f 0.55(  3.06%)
   308. (0.00000) RY*(13) C  10           s( 97.92%)p 0.01(  1.02%)d 0.01(  1.00%)
                                                  f 0.00(  0.06%)
   309. (0.00000) RY*(14) C  10           s(  0.04%)p99.99( 12.05%)d99.99( 87.89%)
                                                  f 0.49(  0.02%)
   310. (0.00000) RY*(15) C  10           s(  0.43%)p 3.00(  1.30%)d99.99( 98.05%)
                                                  f 0.49(  0.21%)
   311. (0.00001) RY*(16) C  10           s(  0.60%)p54.41( 32.58%)d99.99( 66.28%)
                                                  f 0.90(  0.54%)
   312. (0.00000) RY*(17) C  10           s(  0.65%)p 7.11(  4.64%)d99.99( 94.37%)
                                                  f 0.51(  0.33%)
   313. (0.00000) RY*(18) C  10           s(  0.16%)p25.03(  4.06%)d99.99( 95.65%)
                                                  f 0.83(  0.13%)
   314. (0.00000) RY*(19) C  10           s(  0.74%)p99.99( 96.09%)d 4.17(  3.11%)
                                                  f 0.08(  0.06%)
   315. (0.00000) RY*(20) C  10           s(  0.03%)p 6.84(  0.18%)d99.99(  8.69%)
                                                  f99.99( 91.11%)
   316. (0.00000) RY*(21) C  10           s(  3.38%)p 0.03(  0.11%)d 0.61(  2.06%)
                                                  f27.97( 94.45%)
   317. (0.00000) RY*(22) C  10           s(  0.11%)p 2.11(  0.22%)d17.40(  1.84%)
                                                  f99.99( 97.83%)
   318. (0.00000) RY*(23) C  10           s(  0.27%)p 1.39(  0.38%)d39.07( 10.70%)
                                                  f99.99( 88.64%)
   319. (0.00000) RY*(24) C  10           s(  0.19%)p 2.30(  0.43%)d 6.79(  1.27%)
                                                  f99.99( 98.12%)
   320. (0.00000) RY*(25) C  10           s(  0.31%)p 0.61(  0.19%)d 9.47(  2.96%)
                                                  f99.99( 96.53%)
   321. (0.00000) RY*(26) C  10           s(  0.08%)p 1.22(  0.10%)d23.88(  1.98%)
                                                  f99.99( 97.83%)
   322. (0.00440) RY*( 1) C  11           s(  1.45%)p58.12( 84.11%)d 9.80( 14.19%)
                                                  f 0.18(  0.26%)
                                           -0.0000  0.0005  0.1094  0.0499  0.0016
                                            0.0181  0.7262  0.0444  0.0017  0.0724
                                            0.0063 -0.0117 -0.5513 -0.0452 -0.0066
                                            0.0673  0.0608 -0.3152 -0.0133  0.0215
                                           -0.1272  0.0663  0.1051 -0.0444 -0.0264
                                            0.0164  0.0110  0.0125  0.0029 -0.0362
                                            0.0044
   323. (0.00199) RY*( 2) C  11           s(  0.45%)p99.99( 84.49%)d32.65( 14.85%)
                                                  f 0.46(  0.21%)
                                            0.0000 -0.0084 -0.0266  0.0605 -0.0102
                                           -0.0145  0.5550  0.1051  0.0040 -0.1981
                                           -0.0104 -0.0139  0.6898  0.1005  0.0588
                                           -0.0218 -0.1937  0.1559  0.0074  0.0038
                                           -0.2059  0.0651  0.1799 -0.0604 -0.0187
                                            0.0103 -0.0010  0.0248  0.0022 -0.0318
                                            0.0027
   324. (0.00113) RY*( 3) C  11           s( 58.87%)p 0.15(  8.99%)d 0.51( 30.07%)
                                                  f 0.04(  2.06%)
                                            0.0000  0.0028  0.7555 -0.1338  0.0047
                                           -0.0010 -0.1559  0.1538  0.0032  0.1622
                                           -0.0684  0.0002 -0.0698 -0.0781  0.0908
                                           -0.1127 -0.3300  0.1724 -0.0707  0.0381
                                           -0.1859  0.0748  0.1590 -0.2631  0.0711
                                            0.0810 -0.0167 -0.0618 -0.0090 -0.0668
                                            0.0185
   325. (0.00100) RY*( 4) C  11           s(  3.51%)p22.67( 79.48%)d 4.76( 16.69%)
                                                  f 0.09(  0.32%)
                                            0.0000 -0.0009  0.1845 -0.0323  0.0011
                                           -0.0047 -0.0565  0.0385 -0.0148 -0.8165
                                            0.2793 -0.0076 -0.2076  0.0454  0.1260
                                            0.1488 -0.0278  0.1022  0.2710  0.1451
                                            0.1100  0.0362  0.0619  0.0771  0.0052
                                            0.0120 -0.0361 -0.0126  0.0163  0.0098
                                            0.0344
   326. (0.00076) RY*( 5) C  11           s(  9.09%)p 1.13( 10.24%)d 8.66( 78.73%)
                                                  f 0.21(  1.94%)
                                           -0.0000  0.0077 -0.1925  0.2319 -0.0028
                                            0.0175 -0.2863  0.0833 -0.0132 -0.0199
                                            0.1053  0.0293  0.0266 -0.0054  0.1427
                                            0.0686  0.3115 -0.2126 -0.0915  0.2243
                                           -0.3030  0.3136  0.4897 -0.3625 -0.1056
                                            0.0010  0.0388  0.0077  0.0031 -0.0791
                                            0.0196
   327. (0.00054) RY*( 6) C  11           s(  0.23%)p56.37( 13.00%)d99.99( 84.34%)
                                                  f10.54(  2.43%)
                                           -0.0000  0.0019 -0.0123  0.0463  0.0035
                                            0.0038 -0.0858 -0.0415  0.0149 -0.2679
                                           -0.2117  0.0108 -0.0346 -0.0525 -0.7735
                                           -0.0326 -0.0785 -0.0958  0.0878 -0.3497
                                           -0.1504 -0.0420  0.1348 -0.2369 -0.0058
                                            0.0480  0.0402  0.0314  0.1385  0.0116
                                            0.0065
   328. (0.00034) RY*( 7) C  11           s( 25.52%)p 0.46( 11.65%)d 2.43( 62.06%)
                                                  f 0.03(  0.78%)
                                            0.0000  0.0019  0.4968  0.0893 -0.0190
                                           -0.0263  0.0165  0.0659  0.0018 -0.0538
                                           -0.0208 -0.0029  0.3278  0.0198 -0.1002
                                            0.0504  0.5891 -0.3627  0.0330  0.0171
                                            0.0443  0.0402 -0.3525  0.0149  0.0490
                                           -0.0455 -0.0348  0.0371  0.0069 -0.0240
                                           -0.0103
   329. (0.00013) RY*( 8) C  11           s( 55.33%)p 0.15(  8.09%)d 0.52( 28.62%)
                                                  f 0.14(  7.96%)
                                            0.0000 -0.0086  0.0659  0.7408 -0.0003
                                           -0.0167  0.0640  0.2320  0.0026  0.0927
                                            0.0680 -0.0057 -0.0876 -0.0427 -0.1072
                                           -0.0124 -0.0277  0.3528  0.0101  0.0013
                                            0.3204  0.1362 -0.0947 -0.1379 -0.0131
                                           -0.2139  0.0315 -0.0303  0.0397  0.1735
                                           -0.0084
   330. (0.00012) RY*( 9) C  11           s(  5.98%)p 5.71( 34.12%)d 8.50( 50.85%)
                                                  f 1.51(  9.05%)
                                            0.0000 -0.0122  0.1737  0.1216  0.1212
                                           -0.0091  0.0795 -0.5441 -0.0024 -0.0286
                                            0.0616  0.0098  0.1204 -0.1399 -0.0510
                                            0.0445  0.0374 -0.0618 -0.3089  0.0897
                                            0.4473 -0.2310  0.3760 -0.0208 -0.0154
                                            0.1538  0.0857 -0.2210 -0.0130 -0.0645
                                            0.0780
   331. (0.00005) RY*(10) C  11           s(  8.86%)p 4.31( 38.25%)d 5.76( 51.04%)
                                                  f 0.21(  1.85%)
   332. (0.00005) RY*(11) C  11           s( 10.79%)p 1.91( 20.62%)d 2.67( 28.84%)
                                                  f 3.68( 39.76%)
   333. (0.00005) RY*(12) C  11           s(  5.82%)p 0.62(  3.63%)d14.31( 83.33%)
                                                  f 1.24(  7.22%)
   334. (0.00001) RY*(13) C  11           s(  6.08%)p 4.12( 25.07%)d 5.98( 36.37%)
                                                  f 5.34( 32.48%)
   335. (0.00002) RY*(14) C  11           s(  1.04%)p45.43( 47.31%)d46.12( 48.03%)
                                                  f 3.48(  3.62%)
   336. (0.00000) RY*(15) C  11           s(  0.29%)p17.43(  5.08%)d99.99( 92.90%)
                                                  f 5.94(  1.73%)
   337. (0.00000) RY*(16) C  11           s( 96.43%)p 0.00(  0.06%)d 0.03(  2.78%)
                                                  f 0.01(  0.73%)
   338. (0.00001) RY*(17) C  11           s(  0.57%)p19.63( 11.12%)d99.99( 87.27%)
                                                  f 1.84(  1.04%)
   339. (0.00000) RY*(18) C  11           s(  0.14%)p99.99( 33.70%)d99.99( 63.56%)
                                                  f18.23(  2.59%)
   340. (0.00000) RY*(19) C  11           s(  0.18%)p75.36( 13.30%)d99.99( 86.17%)
                                                  f 2.00(  0.35%)
   341. (0.00001) RY*(20) C  11           s(  1.40%)p36.02( 50.27%)d 1.26(  1.76%)
                                                  f33.37( 46.57%)
   342. (0.00001) RY*(21) C  11           s(  2.56%)p 0.32(  0.82%)d 6.22( 15.92%)
                                                  f31.51( 80.70%)
   343. (0.00000) RY*(22) C  11           s(  0.67%)p 9.64(  6.42%)d 0.85(  0.57%)
                                                  f99.99( 92.35%)
   344. (0.00000) RY*(23) C  11           s(  3.36%)p 1.97(  6.63%)d 1.77(  5.94%)
                                                  f24.99( 84.07%)
   345. (0.00000) RY*(24) C  11           s(  0.31%)p 2.33(  0.73%)d 9.41(  2.95%)
                                                  f99.99( 96.01%)
   346. (0.00000) RY*(25) C  11           s(  0.76%)p 2.88(  2.20%)d13.37( 10.19%)
                                                  f99.99( 86.85%)
   347. (0.00000) RY*(26) C  11           s(  0.37%)p 2.94(  1.09%)d 4.15(  1.54%)
                                                  f99.99( 97.00%)
   348. (0.00138) RY*( 1) C  12           s( 18.70%)p 3.65( 68.31%)d 0.65( 12.11%)
                                                  f 0.05(  0.88%)
                                           -0.0000  0.0052  0.4310  0.0349 -0.0045
                                           -0.0020 -0.0367  0.1188  0.0074  0.3941
                                           -0.0388 -0.0075 -0.7134 -0.0423  0.1310
                                            0.0780  0.0529 -0.0609 -0.1736  0.0406
                                           -0.1253  0.0081  0.2058  0.0381 -0.0452
                                            0.0366  0.0392  0.0009 -0.0499 -0.0127
                                            0.0348
   349. (0.00078) RY*( 2) C  12           s( 15.46%)p 3.54( 54.66%)d 1.71( 26.46%)
                                                  f 0.22(  3.42%)
                                           -0.0000  0.0063  0.3842 -0.0828  0.0100
                                            0.0201  0.5813 -0.0828  0.0050 -0.4377
                                            0.0180 -0.0046  0.0729  0.0648 -0.0669
                                            0.0103  0.1730 -0.0976 -0.2081  0.1188
                                           -0.3413  0.1989  0.0092 -0.0835 -0.0328
                                           -0.0796  0.0816  0.1218 -0.0329 -0.0591
                                            0.0277
   350. (0.00055) RY*( 3) C  12           s(  0.17%)p99.99( 52.58%)d99.99( 44.79%)
                                                  f14.14(  2.46%)
                                           -0.0000 -0.0017  0.0370 -0.0163 -0.0099
                                            0.0040  0.3068 -0.0008  0.0206  0.5903
                                           -0.0272  0.0049  0.2688 -0.0983  0.0112
                                            0.1263 -0.2544  0.0544  0.1124 -0.2635
                                           -0.3407  0.2851 -0.2868  0.0503  0.0514
                                            0.0966 -0.0697  0.0077  0.0472 -0.0729
                                            0.0113
   351. (0.00028) RY*( 4) C  12           s(  9.95%)p 1.81( 17.98%)d 6.63( 65.94%)
                                                  f 0.62(  6.13%)
                                            0.0000  0.0032 -0.1813  0.2575  0.0172
                                           -0.0169  0.3839 -0.0303  0.0020  0.1028
                                           -0.1044  0.0152  0.0974 -0.0079  0.2756
                                           -0.1408 -0.2998  0.0743 -0.2567 -0.0399
                                            0.2477 -0.0635  0.4482 -0.3667 -0.1739
                                            0.1633  0.0107  0.0164 -0.0586 -0.0217
                                           -0.0097
   352. (0.00017) RY*( 5) C  12           s(  1.08%)p42.25( 45.56%)d42.71( 46.06%)
                                                  f 6.77(  7.30%)
                                           -0.0000 -0.0022  0.0118  0.0945  0.0414
                                            0.0266 -0.4444 -0.1242  0.0035  0.2522
                                            0.0411 -0.0289  0.3960  0.1376  0.1188
                                            0.0369  0.3664 -0.0032 -0.4149  0.0615
                                           -0.2874  0.0538  0.1352 -0.1768 -0.0981
                                           -0.0842  0.1269  0.1702 -0.0690 -0.0791
                                           -0.0136
   353. (0.00009) RY*( 6) C  12           s( 11.17%)p 1.18( 13.21%)d 6.10( 68.19%)
                                                  f 0.67(  7.43%)
   354. (0.00007) RY*( 7) C  12           s( 27.35%)p 1.57( 43.03%)d 1.02( 27.86%)
                                                  f 0.06(  1.75%)
   355. (0.00003) RY*( 8) C  12           s( 15.39%)p 2.53( 38.88%)d 2.15( 33.01%)
                                                  f 0.83( 12.71%)
   356. (0.00002) RY*( 9) C  12           s(  3.76%)p 4.46( 16.76%)d20.25( 76.15%)
                                                  f 0.88(  3.33%)
   357. (0.00002) RY*(10) C  12           s( 45.77%)p 0.41( 18.72%)d 0.62( 28.31%)
                                                  f 0.16(  7.20%)
   358. (0.00002) RY*(11) C  12           s(  4.53%)p14.77( 66.91%)d 3.37( 15.27%)
                                                  f 2.93( 13.28%)
   359. (0.00000) RY*(12) C  12           s( 98.70%)p 0.01(  0.87%)d 0.00(  0.35%)
                                                  f 0.00(  0.08%)
   360. (0.00000) RY*(13) C  12           s(  6.93%)p 1.52( 10.50%)d11.86( 82.17%)
                                                  f 0.06(  0.40%)
   361. (0.00000) RY*(14) C  12           s(  0.65%)p99.99( 97.07%)d 3.28(  2.14%)
                                                  f 0.20(  0.13%)
   362. (0.00000) RY*(15) C  12           s(  1.07%)p 4.80(  5.14%)d86.83( 92.98%)
                                                  f 0.76(  0.81%)
   363. (0.00001) RY*(16) C  12           s( 29.92%)p 0.50( 14.85%)d 1.83( 54.64%)
                                                  f 0.02(  0.59%)
   364. (0.00000) RY*(17) C  12           s(  0.99%)p 5.26(  5.22%)d94.16( 93.51%)
                                                  f 0.28(  0.27%)
   365. (0.00000) RY*(18) C  12           s(  0.29%)p24.24(  6.93%)d99.99( 92.48%)
                                                  f 1.05(  0.30%)
   366. (0.00000) RY*(19) C  12           s(  1.51%)p 3.18(  4.81%)d61.90( 93.53%)
                                                  f 0.10(  0.15%)
   367. (0.00000) RY*(20) C  12           s(  0.25%)p 3.25(  0.81%)d24.77(  6.20%)
                                                  f99.99( 92.74%)
   368. (0.00000) RY*(21) C  12           s(  1.10%)p 5.26(  5.78%)d 8.62(  9.47%)
                                                  f76.17( 83.65%)
   369. (0.00000) RY*(22) C  12           s(  3.06%)p 0.65(  1.99%)d 1.93(  5.90%)
                                                  f29.13( 89.05%)
   370. (0.00000) RY*(23) C  12           s(  0.24%)p19.91(  4.76%)d26.41(  6.32%)
                                                  f99.99( 88.68%)
   371. (0.00000) RY*(24) C  12           s(  1.69%)p 1.73(  2.92%)d 6.22( 10.48%)
                                                  f50.35( 84.91%)
   372. (0.00000) RY*(25) C  12           s(  0.26%)p 4.18(  1.08%)d 8.54(  2.21%)
                                                  f99.99( 96.45%)
   373. (0.00000) RY*(26) C  12           s(  0.06%)p21.07(  1.34%)d43.13(  2.74%)
                                                  f99.99( 95.86%)
   374. (0.00113) RY*( 1) H  13           s( 99.79%)p 0.00(  0.21%)
                                           -0.0028  0.9989 -0.0008  0.0011 -0.0335
                                           -0.0318
   375. (0.00013) RY*( 2) H  13           s( 98.54%)p 0.01(  1.46%)
                                           -0.0023  0.0049  0.9926  0.0468  0.0186
                                            0.1100
   376. (0.00013) RY*( 3) H  13           s(  0.04%)p99.99( 99.96%)
                                           -0.0028  0.0196  0.0035 -0.9141  0.2579
                                            0.3123
   377. (0.00009) RY*( 4) H  13           s(  0.42%)p99.99( 99.58%)
   378. (0.00002) RY*( 5) H  13           s(  1.27%)p77.59( 98.73%)
   379. (0.00077) RY*( 1) H  14           s( 99.21%)p 0.01(  0.79%)
                                           -0.0030  0.9960 -0.0008  0.0224 -0.0840
                                            0.0185
   380. (0.00022) RY*( 2) H  14           s( 25.72%)p 2.89( 74.28%)
                                           -0.0025 -0.0036  0.5071  0.8316  0.1332
                                           -0.1831
   381. (0.00012) RY*( 3) H  14           s(  6.36%)p14.72( 93.64%)
                                           -0.0032 -0.0694  0.2424 -0.0705 -0.9134
                                           -0.3117
   382. (0.00011) RY*( 4) H  14           s( 61.70%)p 0.62( 38.30%)
                                           -0.0051  0.0382  0.7845 -0.5439  0.2797
                                           -0.0948
   383. (0.00002) RY*( 5) H  14           s(  7.07%)p13.14( 92.93%)
   384. (0.00039) RY*( 1) H  15           s( 94.43%)p 0.06(  5.57%)
                                            0.0011  0.9718 -0.0035  0.1720  0.0490
                                           -0.1539
   385. (0.00017) RY*( 2) H  15           s( 95.96%)p 0.04(  4.04%)
                                           -0.0043  0.0024  0.9796  0.1368 -0.0889
                                            0.1173
   386. (0.00012) RY*( 3) H  15           s(  5.51%)p17.15( 94.49%)
                                           -0.0043  0.2276  0.0574 -0.8529 -0.0646
                                            0.4618
   387. (0.00009) RY*( 4) H  15           s(  0.34%)p99.99( 99.66%)
   388. (0.00001) RY*( 5) H  15           s(  3.81%)p25.27( 96.19%)
   389. (0.00029) RY*( 1) H  16           s( 98.59%)p 0.01(  1.41%)
                                           -0.0016  0.9929  0.0049 -0.1180  0.0101
                                            0.0112
   390. (0.00019) RY*( 2) H  16           s( 99.84%)p 0.00(  0.16%)
                                           -0.0020 -0.0093  0.9992 -0.0343  0.0018
                                            0.0202
   391. (0.00010) RY*( 3) H  16           s(  0.01%)p 1.00( 99.99%)
   392. (0.00007) RY*( 4) H  16           s(  0.68%)p99.99( 99.32%)
   393. (0.00002) RY*( 5) H  16           s(  0.94%)p99.99( 99.06%)
   394. (0.00025) RY*( 1) H  17           s( 99.11%)p 0.01(  0.89%)
                                           -0.0020  0.9955 -0.0120 -0.0901  0.0153
                                            0.0225
   395. (0.00017) RY*( 2) H  17           s( 99.44%)p 0.01(  0.56%)
                                            0.0008  0.0190  0.9970  0.0715 -0.0121
                                           -0.0170
   396. (0.00009) RY*( 3) H  17           s(  0.01%)p 1.00( 99.99%)
   397. (0.00008) RY*( 4) H  17           s(  0.26%)p99.99( 99.74%)
   398. (0.00002) RY*( 5) H  17           s(  1.22%)p80.86( 98.78%)
   399. (0.00030) RY*( 1) H  18           s( 98.83%)p 0.01(  1.17%)
                                           -0.0015  0.9941  0.0020 -0.0880  0.0279
                                           -0.0563
   400. (0.00019) RY*( 2) H  18           s( 99.92%)p 0.00(  0.08%)
                                           -0.0017 -0.0051  0.9996 -0.0212  0.0106
                                           -0.0165
   401. (0.00009) RY*( 3) H  18           s(  0.01%)p99.99( 99.99%)
   402. (0.00007) RY*( 4) H  18           s(  0.46%)p99.99( 99.54%)
   403. (0.00002) RY*( 5) H  18           s(  0.83%)p99.99( 99.17%)
   404. (0.00059) RY*( 1) H  19           s( 90.86%)p 0.10(  9.14%)
                                            0.0003  0.9532  0.0055  0.1747 -0.0623
                                            0.2387
   405. (0.00014) RY*( 2) H  19           s( 89.88%)p 0.11( 10.12%)
                                           -0.0027 -0.0812  0.9446  0.2648 -0.1634
                                            0.0661
   406. (0.00010) RY*( 3) H  19           s(  3.61%)p26.68( 96.39%)
                                           -0.0016  0.0561  0.1816 -0.0402  0.9793
                                            0.0567
   407. (0.00011) RY*( 4) H  19           s( 13.10%)p 6.63( 86.90%)
                                           -0.0052  0.2854  0.2227 -0.5393 -0.0359
                                           -0.7595
   408. (0.00002) RY*( 5) H  19           s(  2.59%)p37.57( 97.41%)
   409. (0.00023) RY*( 1) H  20           s( 95.42%)p 0.05(  4.58%)
                                           -0.0015  0.9766 -0.0222  0.2101 -0.0409
                                           -0.0046
   410. (0.00012) RY*( 2) H  20           s( 38.54%)p 1.59( 61.46%)
                                           -0.0006  0.1661  0.5982 -0.6813  0.1793
                                           -0.3439
   411. (0.00009) RY*( 3) H  20           s( 48.80%)p 1.05( 51.20%)
   412. (0.00006) RY*( 4) H  20           s( 14.42%)p 5.94( 85.58%)
   413. (0.00001) RY*( 5) H  20           s(  2.86%)p33.95( 97.14%)
   414. (0.00025) RY*( 1) H  21           s( 84.51%)p 0.18( 15.49%)
                                           -0.0024  0.9189 -0.0257  0.2827 -0.2431
                                           -0.1262
   415. (0.00011) RY*( 2) H  21           s( 26.16%)p 2.82( 73.84%)
                                           -0.0004  0.2872  0.4233 -0.3895  0.7214
                                           -0.2572
   416. (0.00008) RY*( 3) H  21           s( 23.34%)p 3.28( 76.66%)
   417. (0.00004) RY*( 4) H  21           s( 63.97%)p 0.56( 36.03%)
   418. (0.00001) RY*( 5) H  21           s(  2.05%)p47.77( 97.95%)
   419. (0.00041) RY*( 1) H  22           s( 94.72%)p 0.06(  5.28%)
                                           -0.0028  0.9732 -0.0070  0.1288 -0.0495
                                           -0.1838
   420. (0.00011) RY*( 2) H  22           s(  0.29%)p99.99( 99.71%)
                                            0.0016  0.0413  0.0350 -0.6332 -0.7719
                                           -0.0185
   421. (0.00010) RY*( 3) H  22           s( 76.13%)p 0.31( 23.87%)
   422. (0.00007) RY*( 4) H  22           s( 28.27%)p 2.54( 71.73%)
   423. (0.00001) RY*( 5) H  22           s(  0.63%)p99.99( 99.37%)
   424. (0.01852) BD*( 1) C   1 - C   2  
                ( 51.60%)   0.7184* C   1 s( 33.29%)p 2.00( 66.53%)d 0.00(  0.16%)
                                                  f 0.00(  0.02%)
                                           -0.0000  0.5770  0.0074  0.0007  0.0003
                                           -0.6346  0.0052  0.0067 -0.0740  0.0005
                                           -0.0015  0.5069 -0.0006 -0.0010  0.0073
                                           -0.0017 -0.0350 -0.0039 -0.0047 -0.0005
                                            0.0154  0.0031  0.0050  0.0015 -0.0039
                                           -0.0035 -0.0017  0.0117  0.0015 -0.0068
                                           -0.0017
                ( 48.40%)  -0.6957* C   2 s( 30.30%)p 2.30( 69.59%)d 0.00(  0.11%)
                                                  f 0.00(  0.00%)
                                            0.0001  0.5501  0.0205  0.0016  0.0003
                                            0.6785  0.0166  0.0046  0.0930  0.0071
                                            0.0024 -0.4759 -0.0036 -0.0031 -0.0014
                                            0.0035 -0.0292 -0.0052  0.0031 -0.0034
                                            0.0112  0.0062  0.0012  0.0007  0.0047
                                            0.0036 -0.0019  0.0011  0.0006  0.0024
                                            0.0016
   425. (0.01825) BD*( 1) C   1 - C   6  
                ( 52.02%)   0.7213* C   1 s( 37.66%)p 1.65( 62.07%)d 0.01(  0.26%)
                                                  f 0.00(  0.02%)
                                            0.0000  0.6136  0.0074  0.0023 -0.0006
                                            0.7468 -0.0108 -0.0076 -0.1188 -0.0010
                                            0.0020  0.2205  0.0018 -0.0007 -0.0123
                                           -0.0008  0.0276  0.0003 -0.0029 -0.0009
                                            0.0335  0.0053 -0.0219 -0.0003 -0.0046
                                           -0.0043  0.0003  0.0059 -0.0024  0.0098
                                           -0.0040
                ( 47.98%)  -0.6927* C   6 s( 34.50%)p 1.90( 65.45%)d 0.00(  0.05%)
                                                  f 0.00(  0.00%)
                                           -0.0000  0.5873  0.0078  0.0025  0.0005
                                           -0.7842 -0.0025  0.0005  0.0892 -0.0006
                                           -0.0005 -0.1775  0.0009  0.0004 -0.0014
                                           -0.0035  0.0049  0.0065  0.0025 -0.0005
                                            0.0072  0.0128 -0.0114 -0.0076  0.0007
                                            0.0017  0.0003 -0.0017  0.0009 -0.0044
                                            0.0013
   426. (0.12197) BD*( 2) C   1 - C   6  
                ( 64.87%)   0.8054* C   1 s(  0.01%)p 1.00( 99.84%)d 0.00(  0.12%)
                                                  f 0.00(  0.03%)
                                           -0.0001  0.0048  0.0058 -0.0011  0.0002
                                            0.0801  0.0025  0.0009  0.9676 -0.0043
                                            0.0084  0.2360 -0.0041  0.0015  0.0282
                                            0.0065  0.0101  0.0001  0.0111  0.0017
                                            0.0110  0.0000  0.0059 -0.0002  0.0023
                                            0.0015  0.0027  0.0068  0.0020  0.0047
                                            0.0158
                ( 35.13%)  -0.5927* C   6 s(  0.00%)p 1.00( 99.97%)d 0.00(  0.01%)
                                                  f 0.00(  0.02%)
                                           -0.0000  0.0056 -0.0006 -0.0005  0.0001
                                            0.0646  0.0018  0.0010  0.9727 -0.0070
                                            0.0015  0.2218 -0.0014  0.0011 -0.0095
                                           -0.0049 -0.0029 -0.0017 -0.0020 -0.0019
                                           -0.0026 -0.0015 -0.0006 -0.0008  0.0035
                                            0.0005  0.0053  0.0051 -0.0003  0.0025
                                            0.0093
   427. (0.01474) BD*( 1) C   1 - H  13  
                ( 37.23%)   0.6102* C   1 s( 28.97%)p 2.45( 70.91%)d 0.00(  0.10%)
                                                  f 0.00(  0.02%)
                                           -0.0002  0.5381 -0.0117 -0.0029  0.0004
                                           -0.1727 -0.0024  0.0007  0.2061  0.0026
                                           -0.0000 -0.7978 -0.0168 -0.0055  0.0023
                                           -0.0024  0.0080  0.0031 -0.0065 -0.0043
                                           -0.0097 -0.0028  0.0266  0.0064 -0.0037
                                           -0.0034  0.0078 -0.0098  0.0034  0.0002
                                            0.0029
                ( 62.77%)  -0.7923* H  13 s( 99.95%)p 0.00(  0.05%)
                                            0.9997  0.0033 -0.0002  0.0030 -0.0058
                                            0.0222
   428. (0.02448) BD*( 1) C   2 -Br   3  
                ( 49.95%)   0.7068* C   2 s( 15.40%)p 5.47( 84.28%)d 0.02(  0.32%)
                                                  f 0.00(  0.01%)
                                           -0.0003  0.3916 -0.0179 -0.0173  0.0004
                                           -0.3594 -0.0048  0.0153 -0.8141 -0.0067
                                            0.0376 -0.2204  0.0196  0.0135  0.0273
                                           -0.0025  0.0028  0.0006  0.0369 -0.0038
                                           -0.0259  0.0009 -0.0194  0.0014  0.0053
                                            0.0017  0.0026  0.0038 -0.0029  0.0051
                                            0.0040
                ( 50.05%)  -0.7074*Br   3 s( 10.02%)p 8.95( 89.70%)d 0.03(  0.27%)
                                                  f 0.00(  0.01%)
                                           -0.0000 -0.0000  0.0003  0.3156  0.0235
                                            0.0007  0.0000 -0.0004  0.3344  0.0110
                                            0.0015  0.0000 -0.0007  0.8461  0.0312
                                            0.0046 -0.0000 -0.0001  0.2609  0.0112
                                            0.0029  0.0001  0.0282  0.0007  0.0017
                                            0.0002  0.0063 -0.0012  0.0011  0.0003
                                            0.0216 -0.0010  0.0020 -0.0003 -0.0310
                                           -0.0001 -0.0021 -0.0000 -0.0211 -0.0001
                                           -0.0007 -0.0030 -0.0015 -0.0035 -0.0037
                                            0.0022 -0.0054 -0.0022
   429. (0.09995) BD*( 1) C   2 - C   4  
                ( 45.13%)   0.6718* C   2 s( 27.45%)p 2.64( 72.35%)d 0.01(  0.20%)
                                                  f 0.00(  0.01%)
                                           -0.0001 -0.5238  0.0030 -0.0056  0.0001
                                            0.6142 -0.0074  0.0066 -0.5658  0.0005
                                           -0.0026  0.1608 -0.0089 -0.0014  0.0304
                                            0.0066 -0.0209  0.0002  0.0129  0.0015
                                           -0.0017  0.0014  0.0201  0.0016 -0.0054
                                           -0.0047  0.0027  0.0010  0.0001 -0.0049
                                           -0.0042
                ( 54.87%)  -0.7407* C   4 s( 30.42%)p 2.29( 69.52%)d 0.00(  0.06%)
                                                  f 0.00(  0.01%)
                                           -0.0002 -0.5511  0.0199  0.0047 -0.0001
                                           -0.6124  0.0086  0.0033  0.5514 -0.0011
                                           -0.0065 -0.1261 -0.0068  0.0048  0.0178
                                           -0.0003 -0.0080 -0.0034  0.0038  0.0008
                                           -0.0013 -0.0010  0.0124  0.0010  0.0021
                                            0.0016 -0.0012  0.0010  0.0043  0.0031
                                            0.0041
   430. (0.02154) BD*( 1) C   2 - H  14  
                ( 36.17%)   0.6014* C   2 s( 26.86%)p 2.72( 73.03%)d 0.00(  0.11%)
                                                  f 0.00(  0.00%)
                                            0.0002 -0.5182  0.0019 -0.0045  0.0003
                                           -0.1736  0.0050 -0.0002  0.0540 -0.0036
                                            0.0067 -0.8345  0.0072 -0.0257  0.0017
                                           -0.0004 -0.0175 -0.0022  0.0036  0.0017
                                            0.0016  0.0001 -0.0255 -0.0109 -0.0034
                                           -0.0016  0.0000  0.0007  0.0015 -0.0041
                                           -0.0018
                ( 63.83%)  -0.7989* H  14 s( 99.94%)p 0.00(  0.06%)
                                           -0.9997 -0.0038  0.0000  0.0028 -0.0044
                                            0.0234
   431. (0.01348) BD*( 1) C   4 - O   5  
                ( 65.19%)   0.8074* C   4 s( 32.78%)p 2.05( 67.14%)d 0.00(  0.07%)
                                                  f 0.00(  0.01%)
                                            0.0000 -0.5703 -0.0506  0.0019 -0.0008
                                            0.0173  0.0095  0.0023 -0.3834 -0.0295
                                           -0.0012  0.7223  0.0386 -0.0005 -0.0043
                                           -0.0056 -0.0018 -0.0026  0.0134 -0.0115
                                            0.0057 -0.0009 -0.0144  0.0068  0.0032
                                            0.0012 -0.0064 -0.0041  0.0011  0.0017
                                            0.0013
                ( 34.81%)  -0.5900* O   5 s( 42.99%)p 1.31( 56.35%)d 0.01(  0.64%)
                                                  f 0.00(  0.01%)
                                           -0.0000 -0.6557 -0.0063  0.0003 -0.0004
                                            0.0245 -0.0007  0.0010  0.4082 -0.0107
                                           -0.0051 -0.6291  0.0185  0.0079 -0.0035
                                            0.0003  0.0003  0.0002  0.0609  0.0010
                                            0.0200  0.0001 -0.0479 -0.0007 -0.0037
                                           -0.0006  0.0099  0.0057 -0.0010 -0.0009
                                           -0.0016
   432. (0.09105) BD*( 2) C   4 - O   5  
                ( 67.44%)   0.8212* C   4 s(  0.05%)p99.99( 99.81%)d 2.52(  0.13%)
                                                  f 0.13(  0.01%)
                                           -0.0000  0.0227  0.0025  0.0000  0.0001
                                            0.5566 -0.0089  0.0068  0.7305 -0.0127
                                            0.0105  0.3925 -0.0084  0.0073  0.0107
                                            0.0040 -0.0159 -0.0043 -0.0155 -0.0037
                                           -0.0096 -0.0013 -0.0225 -0.0073  0.0002
                                           -0.0027  0.0017 -0.0008 -0.0040  0.0064
                                           -0.0008
                ( 32.56%)  -0.5706* O   5 s(  0.07%)p99.99( 99.48%)d 6.07(  0.43%)
                                                  f 0.27(  0.02%)
                                            0.0000  0.0265  0.0001  0.0002 -0.0000
                                            0.5484 -0.0057  0.0011  0.7018 -0.0069
                                            0.0016  0.4489 -0.0052  0.0012 -0.0172
                                           -0.0002  0.0319 -0.0002  0.0231  0.0001
                                            0.0251 -0.0004  0.0423  0.0001  0.0098
                                            0.0056 -0.0002  0.0056 -0.0044 -0.0031
                                           -0.0022
   433. (0.05337) BD*( 1) C   4 - C  12  
                ( 50.31%)   0.7093* C   4 s( 36.92%)p 1.71( 63.03%)d 0.00(  0.04%)
                                                  f 0.00(  0.00%)
                                           -0.0001  0.6073 -0.0171  0.0049 -0.0003
                                           -0.5599  0.0002  0.0005  0.1115  0.0059
                                            0.0045  0.5516 -0.0065 -0.0059  0.0046
                                            0.0091 -0.0138  0.0061  0.0063  0.0023
                                            0.0055 -0.0034  0.0053 -0.0007 -0.0002
                                           -0.0056  0.0011  0.0038 -0.0004 -0.0018
                                            0.0002
                ( 49.69%)  -0.7049* C  12 s( 26.58%)p 2.75( 73.12%)d 0.01(  0.28%)
                                                  f 0.00(  0.01%)
                                            0.0001  0.5155 -0.0001 -0.0071 -0.0000
                                            0.5721  0.0033 -0.0146 -0.1137  0.0015
                                            0.0046 -0.6251 -0.0044  0.0059 -0.0057
                                           -0.0027 -0.0449  0.0001  0.0136 -0.0038
                                            0.0217 -0.0006  0.0107  0.0020  0.0025
                                            0.0069 -0.0016 -0.0067  0.0054  0.0033
                                            0.0012
   434. (0.02327) BD*( 1) C   6 - C   7  
                ( 47.70%)   0.6907* C   6 s( 32.34%)p 2.09( 67.61%)d 0.00(  0.05%)
                                                  f 0.00(  0.00%)
                                            0.0001 -0.5686  0.0040  0.0014  0.0002
                                           -0.5688 -0.0110  0.0014 -0.0926  0.0006
                                           -0.0003  0.5864 -0.0012 -0.0015 -0.0034
                                           -0.0025  0.0143  0.0140  0.0022  0.0021
                                           -0.0030 -0.0046 -0.0058 -0.0049 -0.0004
                                           -0.0022 -0.0013  0.0039  0.0010 -0.0025
                                           -0.0004
                ( 52.30%)  -0.7232* C   7 s( 33.45%)p 1.98( 66.36%)d 0.01(  0.18%)
                                                  f 0.00(  0.02%)
                                           -0.0000 -0.5783  0.0056  0.0052  0.0005
                                            0.5643  0.0195 -0.0091  0.0948 -0.0008
                                           -0.0011 -0.5793 -0.0019  0.0088 -0.0054
                                           -0.0012  0.0337  0.0064  0.0079  0.0006
                                           -0.0160 -0.0018 -0.0157 -0.0018  0.0004
                                            0.0074  0.0033 -0.0098 -0.0025  0.0041
                                            0.0020
   435. (0.02846) BD*( 1) C   6 - C  11  
                ( 47.90%)   0.6921* C   6 s( 33.14%)p 2.02( 66.82%)d 0.00(  0.04%)
                                                  f 0.00(  0.00%)
                                            0.0000 -0.5757  0.0046  0.0015  0.0002
                                           -0.2373 -0.0085  0.0003  0.1920  0.0011
                                           -0.0003 -0.7582 -0.0025 -0.0019  0.0006
                                            0.0014 -0.0059 -0.0067  0.0037  0.0056
                                            0.0031  0.0011 -0.0099 -0.0129 -0.0029
                                           -0.0031  0.0026 -0.0011  0.0016 -0.0002
                                            0.0007
                ( 52.10%)  -0.7218* C  11 s( 33.29%)p 2.00( 66.50%)d 0.01(  0.19%)
                                                  f 0.00(  0.02%)
                                           -0.0000 -0.5769  0.0065  0.0054  0.0004
                                            0.2679  0.0150 -0.0039 -0.1852 -0.0026
                                            0.0029  0.7473  0.0077 -0.0118  0.0044
                                            0.0006 -0.0168 -0.0038  0.0163  0.0021
                                           -0.0021  0.0008 -0.0356 -0.0049  0.0077
                                            0.0076 -0.0073  0.0041 -0.0036 -0.0003
                                           -0.0015
   436. (0.01155) BD*( 1) C   7 - C   8  
                ( 49.91%)   0.7065* C   7 s( 36.48%)p 1.74( 63.37%)d 0.00(  0.14%)
                                                  f 0.00(  0.01%)
                                           -0.0000 -0.6038 -0.0138 -0.0057  0.0002
                                           -0.7781 -0.0237  0.0012  0.0804 -0.0032
                                           -0.0002 -0.1442  0.0202  0.0014  0.0085
                                            0.0007 -0.0250  0.0007  0.0043 -0.0017
                                           -0.0231 -0.0065  0.0074  0.0076  0.0009
                                            0.0040 -0.0003 -0.0010  0.0013 -0.0089
                                            0.0020
                ( 50.09%)  -0.7078* C   8 s( 35.45%)p 1.82( 64.40%)d 0.00(  0.14%)
                                                  f 0.00(  0.01%)
                                           -0.0000 -0.5953 -0.0067 -0.0030  0.0004
                                            0.7743  0.0157 -0.0065 -0.0907 -0.0075
                                            0.0007  0.1872  0.0292 -0.0012  0.0048
                                            0.0019 -0.0032 -0.0051  0.0012  0.0002
                                           -0.0321 -0.0060  0.0163  0.0038 -0.0032
                                           -0.0020  0.0001  0.0047 -0.0020  0.0071
                                           -0.0028
   437. (0.18307) BD*( 2) C   7 - C   8  
                ( 55.47%)   0.7448* C   7 s(  0.00%)p 1.00( 99.91%)d 0.00(  0.06%)
                                                  f 0.00(  0.03%)
                                            0.0000 -0.0002  0.0003 -0.0004  0.0000
                                            0.0603 -0.0010  0.0012  0.9733 -0.0111
                                            0.0205  0.2182 -0.0024  0.0046  0.0084
                                            0.0115  0.0033  0.0026  0.0164  0.0008
                                            0.0049  0.0016  0.0066  0.0005  0.0045
                                           -0.0001  0.0067  0.0063 -0.0025  0.0020
                                            0.0132
                ( 44.53%)  -0.6673* C   8 s(  0.00%)p 1.00( 99.92%)d 0.00(  0.05%)
                                                  f 0.00(  0.03%)
                                            0.0000 -0.0001  0.0003 -0.0003  0.0000
                                            0.0611 -0.0008  0.0012  0.9732 -0.0128
                                            0.0188  0.2187 -0.0030  0.0042 -0.0155
                                           -0.0072 -0.0028 -0.0015  0.0119  0.0015
                                            0.0008 -0.0006  0.0049  0.0005  0.0048
                                            0.0011  0.0071  0.0069  0.0011  0.0029
                                            0.0122
   438. (0.01058) BD*( 1) C   7 - H  15  
                ( 37.81%)   0.6149* C   7 s( 30.02%)p 2.33( 69.90%)d 0.00(  0.07%)
                                                  f 0.00(  0.02%)
                                           -0.0003  0.5478 -0.0060 -0.0013  0.0007
                                           -0.2626  0.0122  0.0009  0.1891 -0.0047
                                           -0.0007 -0.7706  0.0172  0.0025 -0.0031
                                           -0.0007  0.0174  0.0036 -0.0048 -0.0035
                                           -0.0069 -0.0015  0.0126  0.0091 -0.0067
                                           -0.0016  0.0074 -0.0073  0.0027 -0.0030
                                            0.0029
                ( 62.19%)  -0.7886* H  15 s( 99.95%)p 0.00(  0.05%)
                                            0.9997  0.0012  0.0004  0.0072 -0.0052
                                            0.0212
   439. (0.01412) BD*( 1) C   8 - C   9  
                ( 49.71%)   0.7050* C   8 s( 34.53%)p 1.89( 65.31%)d 0.00(  0.14%)
                                                  f 0.00(  0.01%)
                                           -0.0000 -0.5876 -0.0067 -0.0011 -0.0002
                                           -0.2483 -0.0313  0.0028  0.1832  0.0041
                                           -0.0016 -0.7462 -0.0094  0.0062  0.0011
                                            0.0017 -0.0041 -0.0074  0.0141  0.0024
                                            0.0006  0.0002 -0.0339 -0.0047 -0.0045
                                           -0.0057  0.0050 -0.0040  0.0031 -0.0008
                                            0.0015
                ( 50.29%)  -0.7092* C   9 s( 35.58%)p 1.81( 64.27%)d 0.00(  0.13%)
                                                  f 0.00(  0.01%)
                                           -0.0000 -0.5965 -0.0061 -0.0016  0.0001
                                            0.2140 -0.0187  0.0015 -0.1827 -0.0044
                                            0.0012  0.7500  0.0246 -0.0056  0.0062
                                           -0.0000 -0.0239 -0.0008  0.0120  0.0025
                                           -0.0045  0.0019 -0.0224 -0.0071  0.0078
                                            0.0027 -0.0058  0.0014 -0.0015  0.0004
                                           -0.0007
   440. (0.01272) BD*( 1) C   8 - H  16  
                ( 37.44%)   0.6119* C   8 s( 29.96%)p 2.33( 69.95%)d 0.00(  0.08%)
                                                  f 0.00(  0.02%)
                                            0.0004 -0.5473  0.0106  0.0038 -0.0002
                                           -0.5760  0.0152  0.0057 -0.0983  0.0025
                                            0.0006  0.5979 -0.0152 -0.0043 -0.0059
                                           -0.0009  0.0256  0.0057 -0.0003  0.0012
                                            0.0012 -0.0036 -0.0043 -0.0017  0.0029
                                           -0.0033 -0.0046  0.0076  0.0023 -0.0076
                                           -0.0008
                ( 62.56%)  -0.7910* H  16 s( 99.95%)p 0.00(  0.05%)
                                           -0.9998  0.0003 -0.0012  0.0147  0.0027
                                           -0.0162
   441. (0.01430) BD*( 1) C   9 - C  10  
                ( 50.29%)   0.7091* C   9 s( 35.38%)p 1.82( 64.48%)d 0.00(  0.13%)
                                                  f 0.00(  0.01%)
                                            0.0000  0.5948  0.0056  0.0014 -0.0001
                                           -0.5265  0.0065  0.0014 -0.1017 -0.0071
                                            0.0013  0.5969  0.0296 -0.0060  0.0042
                                            0.0014 -0.0294 -0.0062 -0.0035 -0.0013
                                            0.0189  0.0000  0.0024  0.0042  0.0020
                                           -0.0070 -0.0030  0.0054  0.0026 -0.0027
                                           -0.0010
                ( 49.71%)  -0.7051* C  10 s( 34.40%)p 1.90( 65.45%)d 0.00(  0.15%)
                                                  f 0.00(  0.01%)
                                            0.0000  0.5865  0.0067  0.0011  0.0003
                                            0.5537  0.0319 -0.0055  0.0969 -0.0029
                                           -0.0008 -0.5809  0.0039  0.0046  0.0051
                                            0.0013 -0.0268 -0.0079 -0.0090  0.0001
                                            0.0070  0.0039  0.0223 -0.0013  0.0010
                                            0.0042  0.0020 -0.0073 -0.0020  0.0050
                                            0.0011
   442. (0.01026) BD*( 1) C   9 - H  17  
                ( 37.88%)   0.6155* C   9 s( 28.99%)p 2.45( 70.91%)d 0.00(  0.08%)
                                                  f 0.00(  0.02%)
                                            0.0003 -0.5383  0.0092  0.0030 -0.0002
                                           -0.8191  0.0228  0.0039  0.0898 -0.0025
                                           -0.0004 -0.1718  0.0049  0.0008  0.0043
                                            0.0012 -0.0114 -0.0022 -0.0041  0.0003
                                           -0.0148 -0.0054  0.0204  0.0029 -0.0005
                                           -0.0012  0.0014 -0.0019  0.0041 -0.0113
                                            0.0029
                ( 62.12%)  -0.7882* H  17 s( 99.95%)p 0.00(  0.05%)
                                           -0.9997 -0.0002 -0.0007  0.0218 -0.0023
                                            0.0044
   443. (0.01142) BD*( 1) C  10 - C  11  
                ( 50.23%)   0.7088* C  10 s( 35.71%)p 1.80( 64.14%)d 0.00(  0.14%)
                                                  f 0.00(  0.01%)
                                            0.0000  0.5975  0.0075  0.0031 -0.0004
                                           -0.7848 -0.0277  0.0067  0.0796 -0.0028
                                           -0.0007 -0.1339  0.0203  0.0013 -0.0079
                                           -0.0011  0.0193  0.0009 -0.0038  0.0004
                                            0.0274  0.0073 -0.0101 -0.0055  0.0008
                                            0.0045 -0.0001 -0.0015  0.0010 -0.0083
                                            0.0021
                ( 49.77%)  -0.7055* C  11 s( 36.63%)p 1.73( 63.22%)d 0.00(  0.14%)
                                                  f 0.00(  0.01%)
                                            0.0000  0.6050  0.0148  0.0050 -0.0002
                                            0.7719  0.0129 -0.0022 -0.0865 -0.0068
                                           -0.0002  0.1673  0.0263  0.0012 -0.0030
                                           -0.0021 -0.0042  0.0073  0.0002  0.0005
                                            0.0314  0.0036 -0.0181 -0.0044 -0.0022
                                           -0.0015 -0.0007  0.0048 -0.0022  0.0074
                                           -0.0029
   444. (0.17367) BD*( 2) C  10 - C  11  
                ( 45.62%)   0.6754* C  10 s(  0.00%)p 1.00( 99.93%)d 0.00(  0.05%)
                                                  f 0.00(  0.03%)
                                           -0.0000  0.0001  0.0001 -0.0002 -0.0000
                                           -0.0610  0.0008 -0.0011 -0.9728  0.0129
                                           -0.0188 -0.2204  0.0029 -0.0042  0.0087
                                            0.0064  0.0030  0.0017  0.0155  0.0037
                                            0.0049  0.0017  0.0065  0.0016 -0.0042
                                           -0.0000 -0.0062 -0.0064  0.0018 -0.0022
                                           -0.0132
                ( 54.38%)  -0.7374* C  11 s(  0.00%)p 1.00( 99.92%)d 0.00(  0.05%)
                                                  f 0.00(  0.03%)
                                           -0.0000 -0.0011 -0.0001  0.0002 -0.0000
                                           -0.0604  0.0008 -0.0009 -0.9728  0.0105
                                           -0.0209 -0.2204  0.0025 -0.0046 -0.0162
                                           -0.0102 -0.0028 -0.0026  0.0109 -0.0027
                                            0.0006 -0.0019  0.0046 -0.0013 -0.0056
                                           -0.0011 -0.0082 -0.0072 -0.0006 -0.0027
                                           -0.0118
   445. (0.01257) BD*( 1) C  10 - H  18  
                ( 37.49%)   0.6123* C  10 s( 29.84%)p 2.35( 70.07%)d 0.00(  0.07%)
                                                  f 0.00(  0.02%)
                                            0.0003 -0.5461  0.0112  0.0038 -0.0001
                                           -0.2642  0.0072  0.0029  0.1911 -0.0050
                                           -0.0013 -0.7706  0.0200  0.0056  0.0016
                                            0.0011 -0.0130 -0.0039  0.0060  0.0027
                                            0.0113 -0.0010 -0.0189 -0.0051 -0.0058
                                           -0.0025  0.0070 -0.0071  0.0029 -0.0026
                                            0.0028
                ( 62.51%)  -0.7906* H  18 s( 99.95%)p 0.00(  0.05%)
                                           -0.9998  0.0003 -0.0011  0.0062 -0.0050
                                            0.0204
   446. (0.01129) BD*( 1) C  11 - H  19  
                ( 38.07%)   0.6170* C  11 s( 30.02%)p 2.33( 69.89%)d 0.00(  0.07%)
                                                  f 0.00(  0.02%)
                                           -0.0003  0.5479 -0.0056 -0.0006  0.0006
                                           -0.5712  0.0168  0.0015 -0.1015  0.0009
                                            0.0006  0.6016 -0.0091 -0.0022  0.0048
                                            0.0019 -0.0233 -0.0086  0.0018 -0.0019
                                            0.0040  0.0013 -0.0029  0.0051  0.0035
                                           -0.0037 -0.0053  0.0081  0.0025 -0.0075
                                           -0.0010
                ( 61.93%)  -0.7869* H  19 s( 99.95%)p 0.00(  0.05%)
                                            0.9997  0.0014  0.0004  0.0154  0.0031
                                           -0.0173
   447. (0.00473) BD*( 1) C  12 - H  20  
                ( 37.88%)   0.6154* C  12 s( 24.37%)p 3.10( 75.47%)d 0.01(  0.15%)
                                                  f 0.00(  0.01%)
                                           -0.0002  0.4937  0.0021 -0.0004  0.0002
                                           -0.2940 -0.0073 -0.0053 -0.7692  0.0043
                                           -0.0004  0.2766  0.0037  0.0012  0.0101
                                            0.0041 -0.0021 -0.0019 -0.0137 -0.0019
                                           -0.0320  0.0009 -0.0136 -0.0019 -0.0014
                                            0.0022  0.0013 -0.0021  0.0062  0.0023
                                            0.0032
                ( 62.12%)  -0.7882* H  20 s( 99.97%)p 0.00(  0.03%)
                                            0.9999  0.0007 -0.0000  0.0064  0.0144
                                           -0.0069
   448. (0.00445) BD*( 1) C  12 - H  21  
                ( 37.67%)   0.6137* C  12 s( 23.55%)p 3.24( 76.28%)d 0.01(  0.16%)
                                                  f 0.00(  0.01%)
                                            0.0002 -0.4853  0.0006 -0.0015 -0.0001
                                           -0.3799  0.0087  0.0003 -0.4077 -0.0023
                                           -0.0034 -0.6725 -0.0029 -0.0031 -0.0193
                                            0.0003 -0.0280 -0.0003 -0.0173 -0.0037
                                           -0.0087  0.0029 -0.0066 -0.0027 -0.0012
                                           -0.0025 -0.0037  0.0021 -0.0046 -0.0023
                                           -0.0036
                ( 62.33%)  -0.7895* H  21 s( 99.97%)p 0.00(  0.03%)
                                           -0.9999 -0.0006  0.0001  0.0060  0.0077
                                            0.0136
   449. (0.00381) BD*( 1) C  12 - H  22  
                ( 37.61%)   0.6133* C  12 s( 25.44%)p 2.93( 74.43%)d 0.00(  0.12%)
                                                  f 0.00(  0.01%)
                                           -0.0001  0.5044  0.0001  0.0052 -0.0002
                                           -0.6628 -0.0010 -0.0054  0.4769 -0.0034
                                            0.0027 -0.2785  0.0071  0.0001 -0.0235
                                           -0.0031  0.0183  0.0016 -0.0130 -0.0024
                                            0.0046  0.0015 -0.0081 -0.0003  0.0016
                                            0.0033  0.0008 -0.0023  0.0064  0.0024
                                            0.0053
                ( 62.39%)  -0.7898* H  22 s( 99.96%)p 0.00(  0.04%)
                                            0.9998  0.0010  0.0001  0.0152 -0.0104
                                            0.0036


 NHO Directionality and "Bond Bending" (deviations from line of nuclear centers)

         [Thresholds for printing:  angular deviation  >  1.0 degree]
                                    hybrid p-character > 25.0%
                                    orbital occupancy  >  0.10e

                                Line of Centers        Hybrid 1              Hybrid 2
                                ---------------  -------------------   ------------------
                NBO               Theta   Phi    Theta   Phi    Dev    Theta   Phi    Dev
 ========================================================================================
     1. BD (   1) C   1 - C   2    53.6  186.6    51.1  186.9   2.4    124.3    8.3   2.6
     2. BD (   1) C   1 - C   6    75.7  352.3    73.3  350.8   2.8    102.6  173.6   2.1
     3. BD (   2) C   1 - C   6    75.7  352.3    76.5   85.1  89.3     77.1   86.0  89.7
     4. BD (   1) C   1 - H  13   160.7  130.9   161.7  129.9   1.1      --     --    --
     5. BD (   1) C   2 -Br   3   106.5  248.9   102.3  246.0   5.0      --     --    --
     6. BD (   1) C   2 - C   4   101.0  136.8     --     --    --      81.0  317.8   2.3
     8. BD (   1) C   4 - O   5   149.8   88.8   151.4   94.0   3.0     33.1  266.4   3.2
     9. BD (   2) C   4 - O   5   149.8   88.8    66.8   52.7  88.1     63.3   52.0  88.3
    10. BD (   1) C   4 - C  12    43.5  169.9    46.7  167.7   3.5    137.5  349.1   1.2
    11. BD (   1) C   6 - C   7   136.2    9.8   134.9    9.1   1.4     45.5  189.2   1.8
    12. BD (   1) C   6 - C  11    22.3  322.8     --     --    --     155.8  146.5   2.5
    13. BD (   1) C   7 - C   8    78.2  353.8    81.3  354.5   3.2    105.2  172.9   3.5
    14. BD (   2) C   7 - C   8    78.2  353.8   102.6  266.5  90.0    102.6  266.4  90.0
    16. BD (   1) C   8 - C   9    21.1  320.8    24.0  326.1   3.5    160.6  136.6   2.3
    18. BD (   1) C   9 - C  10    42.6  190.6    40.5  191.7   2.2    134.3    9.1   3.3
    20. BD (   1) C  10 - C  11   101.1  173.9    97.9  174.6   3.2     76.1  353.2   2.9
    21. BD (   2) C  10 - C  11   101.1  173.9    77.3   86.4  90.0     77.3   86.5  90.1
    24. BD (   1) C  12 - H  20    70.8  249.6    71.1  248.2   1.4      --     --    --
    25. BD (   1) C  12 - H  21    39.5   46.1    39.3   48.1   1.3      --     --    --
    26. BD (   1) C  12 - H  22   109.3  143.8   108.3  144.6   1.2      --     --    --
    53. LP (   2)Br   3             --     --     43.5  317.5   --       --     --    --
    54. LP (   3)Br   3             --     --     52.9  173.1   --       --     --    --
    55. LP (   1) O   5             --     --    150.0   88.3   --       --     --    --
    56. LP (   2) O   5             --     --     74.3  150.1   --       --     --    --
    57. LP*(   1) C   9             --     --    102.7  266.4   --       --     --    --
   426. BD*(   2) C   1 - C   6    75.7  352.3    76.5   85.1  89.3     77.1   86.0  89.7
   437. BD*(   2) C   7 - C   8    78.2  353.8   102.6  266.5  90.0    102.6  266.4  90.0
   444. BD*(   2) C  10 - C  11   101.1  173.9    77.3   86.4  90.0     77.3   86.5  90.1


 Second Order Perturbation Theory Analysis of Fock Matrix in NBO Basis

     Threshold for printing:   0.50 kcal/mol
                                                                              E(2)  E(j)-E(i) F(i,j)
         Donor NBO (i)                     Acceptor NBO (j)                 kcal/mol   a.u.    a.u. 
 ===================================================================================================

 within unit  1
   1. BD (   1) C   1 - C   2        /140. RY*(   1) C   4                    1.44    1.99    0.048
   1. BD (   1) C   1 - C   2        /193. RY*(   2) C   6                    1.77    2.39    0.058
   1. BD (   1) C   1 - C   2        /425. BD*(   1) C   1 - C   6            0.70    1.42    0.028
   1. BD (   1) C   1 - C   2        /433. BD*(   1) C   4 - C  12            1.97    1.26    0.045
   1. BD (   1) C   1 - C   2        /434. BD*(   1) C   6 - C   7            3.82    1.36    0.065
   2. BD (   1) C   1 - C   6        / 84. RY*(   1) C   2                    1.07    1.77    0.039
   2. BD (   1) C   1 - C   6        /218. RY*(   1) C   7                    1.07    2.43    0.046
   2. BD (   1) C   1 - C   6        /322. RY*(   1) C  11                    0.80    2.47    0.040
   2. BD (   1) C   1 - C   6        /424. BD*(   1) C   1 - C   2            0.52    1.31    0.023
   2. BD (   1) C   1 - C   6        /429. BD*(   1) C   2 - C   4            1.17    1.23    0.035
   2. BD (   1) C   1 - C   6        /434. BD*(   1) C   6 - C   7            2.11    1.41    0.049
   2. BD (   1) C   1 - C   6        /435. BD*(   1) C   6 - C  11            2.59    1.42    0.054
   2. BD (   1) C   1 - C   6        /436. BD*(   1) C   7 - C   8            1.74    1.50    0.046
   2. BD (   1) C   1 - C   6        /443. BD*(   1) C  10 - C  11            1.52    1.51    0.043
   3. BD (   2) C   1 - C   6        / 57. LP*(   1) C   9                    1.23    0.22    0.016
   3. BD (   2) C   1 - C   6        /221. RY*(   4) C   7                    1.62    1.43    0.049
   3. BD (   2) C   1 - C   6        /325. RY*(   4) C  11                    1.52    1.24    0.044
   3. BD (   2) C   1 - C   6        /426. BD*(   2) C   1 - C   6            6.31    0.40    0.049
   3. BD (   2) C   1 - C   6        /428. BD*(   1) C   2 -Br   3            3.74    0.44    0.041
   3. BD (   2) C   1 - C   6        /429. BD*(   1) C   2 - C   4            1.27    0.70    0.029
   3. BD (   2) C   1 - C   6        /437. BD*(   2) C   7 - C   8           33.33    0.42    0.113
   3. BD (   2) C   1 - C   6        /444. BD*(   2) C  10 - C  11           30.22    0.42    0.108
   4. BD (   1) C   1 - H  13        / 84. RY*(   1) C   2                    0.89    1.55    0.033
   4. BD (   1) C   1 - H  13        / 85. RY*(   2) C   2                    1.39    1.72    0.044
   4. BD (   1) C   1 - H  13        / 86. RY*(   3) C   2                    0.55    1.78    0.028
   4. BD (   1) C   1 - H  13        / 87. RY*(   4) C   2                    0.89    2.17    0.039
   4. BD (   1) C   1 - H  13        /192. RY*(   1) C   6                    1.61    2.08    0.052
   4. BD (   1) C   1 - H  13        /193. RY*(   2) C   6                    2.70    2.21    0.069
   4. BD (   1) C   1 - H  13        /194. RY*(   3) C   6                    0.81    2.90    0.043
   4. BD (   1) C   1 - H  13        /430. BD*(   1) C   2 - H  14            3.86    1.08    0.058
   4. BD (   1) C   1 - H  13        /435. BD*(   1) C   6 - C  11            8.17    1.19    0.088
   5. BD (   1) C   2 -Br   3        / 59. RY*(   2) C   1                    0.92    1.44    0.033
   5. BD (   1) C   2 -Br   3        /142. RY*(   3) C   4                    0.76    1.88    0.035
   5. BD (   1) C   2 -Br   3        /425. BD*(   1) C   1 - C   6            1.62    1.25    0.041
   5. BD (   1) C   2 -Br   3        /426. BD*(   2) C   1 - C   6           13.93    0.72    0.090
   5. BD (   1) C   2 -Br   3        /432. BD*(   2) C   4 - O   5            7.47    0.74    0.067
   6. BD (   1) C   2 - C   4        / 58. RY*(   1) C   1                    0.88    1.89    0.036
   6. BD (   1) C   2 - C   4        /166. RY*(   1) O   5                    1.09    1.81    0.040
   6. BD (   1) C   2 - C   4        /348. RY*(   1) C  12                    0.92    1.99    0.039
   6. BD (   1) C   2 - C   4        /425. BD*(   1) C   1 - C   6            3.37    1.34    0.060
   6. BD (   1) C   2 - C   4        /426. BD*(   2) C   1 - C   6            2.40    0.80    0.040
   6. BD (   1) C   2 - C   4        /449. BD*(   1) C  12 - H  22            1.39    1.21    0.037
   7. BD (   1) C   2 - H  14        / 58. RY*(   1) C   1                    1.17    1.79    0.041
   7. BD (   1) C   2 - H  14        /111. RY*(   2)Br   3                    0.60    1.54    0.027
   7. BD (   1) C   2 - H  14        /141. RY*(   2) C   4                    0.61    2.36    0.034
   7. BD (   1) C   2 - H  14        /427. BD*(   1) C   1 - H  13            3.92    1.12    0.059
   7. BD (   1) C   2 - H  14        /428. BD*(   1) C   2 -Br   3            0.80    0.75    0.022
   7. BD (   1) C   2 - H  14        /431. BD*(   1) C   4 - O   5            3.06    1.33    0.057
   7. BD (   1) C   2 - H  14        /432. BD*(   2) C   4 - O   5            1.46    0.73    0.030
   8. BD (   1) C   4 - O   5        /140. RY*(   1) C   4                    1.39    2.39    0.052
   8. BD (   1) C   4 - O   5        /430. BD*(   1) C   2 - H  14            0.51    1.66    0.026
   9. BD (   2) C   4 - O   5        /428. BD*(   1) C   2 -Br   3            3.20    0.59    0.039
   9. BD (   2) C   4 - O   5        /430. BD*(   1) C   2 - H  14            0.64    0.92    0.022
   9. BD (   2) C   4 - O   5        /447. BD*(   1) C  12 - H  20            1.26    0.94    0.031
   9. BD (   2) C   4 - O   5        /448. BD*(   1) C  12 - H  21            1.71    0.93    0.036
  10. BD (   1) C   4 - C  12        / 84. RY*(   1) C   2                    0.79    1.65    0.032
  10. BD (   1) C   4 - C  12        /166. RY*(   1) O   5                    0.93    1.82    0.037
  10. BD (   1) C   4 - C  12        /424. BD*(   1) C   1 - C   2            2.08    1.19    0.045
  11. BD (   1) C   6 - C   7        / 58. RY*(   1) C   1                    1.06    1.95    0.041
  11. BD (   1) C   6 - C   7        /244. RY*(   1) C   8                    0.67    2.48    0.036
  11. BD (   1) C   6 - C   7        /245. RY*(   2) C   8                    1.14    2.34    0.046
  11. BD (   1) C   6 - C   7        /322. RY*(   1) C  11                    0.61    2.40    0.034
  11. BD (   1) C   6 - C   7        /424. BD*(   1) C   1 - C   2            4.76    1.24    0.069
  11. BD (   1) C   6 - C   7        /425. BD*(   1) C   1 - C   6            2.41    1.40    0.052
  11. BD (   1) C   6 - C   7        /435. BD*(   1) C   6 - C  11            1.81    1.35    0.044
  11. BD (   1) C   6 - C   7        /436. BD*(   1) C   7 - C   8            1.07    1.43    0.035
  11. BD (   1) C   6 - C   7        /440. BD*(   1) C   8 - H  16            3.05    1.29    0.056
  11. BD (   1) C   6 - C   7        /446. BD*(   1) C  11 - H  19            2.41    1.28    0.050
  12. BD (   1) C   6 - C  11        / 60. RY*(   3) C   1                    0.99    1.82    0.038
  12. BD (   1) C   6 - C  11        /218. RY*(   1) C   7                    0.65    2.37    0.035
  12. BD (   1) C   6 - C  11        /296. RY*(   1) C  10                    0.82    2.47    0.040
  12. BD (   1) C   6 - C  11        /297. RY*(   2) C  10                    1.15    2.31    0.046
  12. BD (   1) C   6 - C  11        /425. BD*(   1) C   1 - C   6            2.80    1.40    0.056
  12. BD (   1) C   6 - C  11        /427. BD*(   1) C   1 - H  13            2.60    1.28    0.052
  12. BD (   1) C   6 - C  11        /434. BD*(   1) C   6 - C   7            1.78    1.35    0.044
  12. BD (   1) C   6 - C  11        /438. BD*(   1) C   7 - H  15            2.14    1.29    0.047
  12. BD (   1) C   6 - C  11        /443. BD*(   1) C  10 - C  11            1.29    1.44    0.039
  12. BD (   1) C   6 - C  11        /445. BD*(   1) C  10 - H  18            3.03    1.29    0.056
  13. BD (   1) C   7 - C   8        /192. RY*(   1) C   6                    0.59    2.27    0.033
  13. BD (   1) C   7 - C   8        /193. RY*(   2) C   6                    1.49    2.40    0.054
  13. BD (   1) C   7 - C   8        /270. RY*(   1) C   9                    0.98    2.44    0.044
  13. BD (   1) C   7 - C   8        /271. RY*(   2) C   9                    0.71    2.42    0.037
  13. BD (   1) C   7 - C   8        /425. BD*(   1) C   1 - C   6            3.57    1.43    0.064
  13. BD (   1) C   7 - C   8        /434. BD*(   1) C   6 - C   7            1.19    1.38    0.036
  13. BD (   1) C   7 - C   8        /438. BD*(   1) C   7 - H  15            0.57    1.32    0.024
  13. BD (   1) C   7 - C   8        /439. BD*(   1) C   8 - C   9            1.66    1.44    0.044
  13. BD (   1) C   7 - C   8        /440. BD*(   1) C   8 - H  16            0.73    1.33    0.028
  13. BD (   1) C   7 - C   8        /442. BD*(   1) C   9 - H  17            2.38    1.33    0.050
  14. BD (   2) C   7 - C   8        / 57. LP*(   1) C   9                   97.94    0.21    0.145
  14. BD (   2) C   7 - C   8        /274. RY*(   5) C   9                    0.81    0.95    0.027
  14. BD (   2) C   7 - C   8        /426. BD*(   2) C   1 - C   6           10.27    0.38    0.060
  14. BD (   2) C   7 - C   8        /437. BD*(   2) C   7 - C   8            0.89    0.40    0.018
  15. BD (   1) C   7 - H  15        /192. RY*(   1) C   6                    1.05    2.06    0.042
  15. BD (   1) C   7 - H  15        /193. RY*(   2) C   6                    1.22    2.19    0.046
  15. BD (   1) C   7 - H  15        /194. RY*(   3) C   6                    0.90    2.88    0.046
  15. BD (   1) C   7 - H  15        /244. RY*(   1) C   8                    2.28    2.31    0.065
  15. BD (   1) C   7 - H  15        /247. RY*(   4) C   8                    0.72    2.09    0.035
  15. BD (   1) C   7 - H  15        /389. RY*(   1) H  16                    0.73    1.69    0.031
  15. BD (   1) C   7 - H  15        /424. BD*(   1) C   1 - C   2            0.67    1.07    0.024
  15. BD (   1) C   7 - H  15        /435. BD*(   1) C   6 - C  11            5.72    1.17    0.073
  15. BD (   1) C   7 - H  15        /436. BD*(   1) C   7 - C   8            0.50    1.26    0.023
  15. BD (   1) C   7 - H  15        /439. BD*(   1) C   8 - C   9            4.66    1.23    0.068
  15. BD (   1) C   7 - H  15        /440. BD*(   1) C   8 - H  16            0.67    1.12    0.024
  16. BD (   1) C   8 - C   9        /218. RY*(   1) C   7                    0.82    2.38    0.040
  16. BD (   1) C   8 - C   9        /219. RY*(   2) C   7                    1.50    2.21    0.052
  16. BD (   1) C   8 - C   9        /296. RY*(   1) C  10                    1.07    2.48    0.046
  16. BD (   1) C   8 - C   9        /297. RY*(   2) C  10                    0.96    2.32    0.042
  16. BD (   1) C   8 - C   9        /436. BD*(   1) C   7 - C   8            1.80    1.45    0.046
  16. BD (   1) C   8 - C   9        /438. BD*(   1) C   7 - H  15            3.07    1.30    0.056
  16. BD (   1) C   8 - C   9        /440. BD*(   1) C   8 - H  16            0.56    1.31    0.024
  16. BD (   1) C   8 - C   9        /441. BD*(   1) C   9 - C  10            0.96    1.41    0.033
  16. BD (   1) C   8 - C   9        /445. BD*(   1) C  10 - H  18            2.50    1.31    0.051
  17. BD (   1) C   8 - H  16        /218. RY*(   1) C   7                    2.11    2.18    0.061
  17. BD (   1) C   8 - H  16        /270. RY*(   1) C   9                    1.65    2.22    0.054
  17. BD (   1) C   8 - H  16        /434. BD*(   1) C   6 - C   7            5.06    1.16    0.068
  17. BD (   1) C   8 - H  16        /436. BD*(   1) C   7 - C   8            0.63    1.25    0.025
  17. BD (   1) C   8 - H  16        /438. BD*(   1) C   7 - H  15            0.56    1.10    0.022
  17. BD (   1) C   8 - H  16        /441. BD*(   1) C   9 - C  10            4.56    1.21    0.066
  17. BD (   1) C   8 - H  16        /442. BD*(   1) C   9 - H  17            0.59    1.11    0.023
  18. BD (   1) C   9 - C  10        /244. RY*(   1) C   8                    1.10    2.50    0.047
  18. BD (   1) C   9 - C  10        /245. RY*(   2) C   8                    0.90    2.36    0.041
  18. BD (   1) C   9 - C  10        /322. RY*(   1) C  11                    0.80    2.41    0.039
  18. BD (   1) C   9 - C  10        /323. RY*(   2) C  11                    1.52    2.25    0.052
  18. BD (   1) C   9 - C  10        /439. BD*(   1) C   8 - C   9            0.98    1.42    0.033
  18. BD (   1) C   9 - C  10        /440. BD*(   1) C   8 - H  16            2.60    1.31    0.052
  18. BD (   1) C   9 - C  10        /443. BD*(   1) C  10 - C  11            1.80    1.46    0.046
  18. BD (   1) C   9 - C  10        /445. BD*(   1) C  10 - H  18            0.51    1.31    0.023
  18. BD (   1) C   9 - C  10        /446. BD*(   1) C  11 - H  19            3.06    1.30    0.056
  19. BD (   1) C   9 - H  17        /244. RY*(   1) C   8                    1.79    2.30    0.057
  19. BD (   1) C   9 - H  17        /246. RY*(   3) C   8                    0.61    1.99    0.031
  19. BD (   1) C   9 - H  17        /296. RY*(   1) C  10                    1.79    2.28    0.057
  19. BD (   1) C   9 - H  17        /298. RY*(   3) C  10                    0.51    1.97    0.028
  19. BD (   1) C   9 - H  17        /399. RY*(   1) H  18                    0.50    1.65    0.026
  19. BD (   1) C   9 - H  17        /436. BD*(   1) C   7 - C   8            4.69    1.26    0.069
  19. BD (   1) C   9 - H  17        /440. BD*(   1) C   8 - H  16            0.71    1.11    0.025
  19. BD (   1) C   9 - H  17        /443. BD*(   1) C  10 - C  11            4.69    1.26    0.069
  19. BD (   1) C   9 - H  17        /445. BD*(   1) C  10 - H  18            0.71    1.11    0.025
  20. BD (   1) C  10 - C  11        /192. RY*(   1) C   6                    1.84    2.27    0.058
  20. BD (   1) C  10 - C  11        /270. RY*(   1) C   9                    0.97    2.45    0.044
  20. BD (   1) C  10 - C  11        /271. RY*(   2) C   9                    0.69    2.42    0.037
  20. BD (   1) C  10 - C  11        /425. BD*(   1) C   1 - C   6            4.11    1.43    0.069
  20. BD (   1) C  10 - C  11        /435. BD*(   1) C   6 - C  11            1.46    1.38    0.040
  20. BD (   1) C  10 - C  11        /441. BD*(   1) C   9 - C  10            1.62    1.43    0.043
  20. BD (   1) C  10 - C  11        /442. BD*(   1) C   9 - H  17            2.28    1.33    0.049
  20. BD (   1) C  10 - C  11        /445. BD*(   1) C  10 - H  18            0.74    1.33    0.028
  20. BD (   1) C  10 - C  11        /446. BD*(   1) C  11 - H  19            0.66    1.32    0.026
  21. BD (   2) C  10 - C  11        / 57. LP*(   1) C   9                   88.43    0.22    0.140
  21. BD (   2) C  10 - C  11        /274. RY*(   5) C   9                    1.37    0.95    0.035
  21. BD (   2) C  10 - C  11        /426. BD*(   2) C   1 - C   6           12.31    0.39    0.066
  21. BD (   2) C  10 - C  11        /444. BD*(   2) C  10 - C  11            0.65    0.41    0.015
  22. BD (   1) C  10 - H  18        /270. RY*(   1) C   9                    1.60    2.22    0.053
  22. BD (   1) C  10 - H  18        /322. RY*(   1) C  11                    2.23    2.21    0.063
  22. BD (   1) C  10 - H  18        /435. BD*(   1) C   6 - C  11            5.22    1.16    0.070
  22. BD (   1) C  10 - H  18        /439. BD*(   1) C   8 - C   9            4.49    1.21    0.066
  22. BD (   1) C  10 - H  18        /442. BD*(   1) C   9 - H  17            0.59    1.11    0.023
  22. BD (   1) C  10 - H  18        /443. BD*(   1) C  10 - C  11            0.66    1.25    0.026
  22. BD (   1) C  10 - H  18        /446. BD*(   1) C  11 - H  19            0.60    1.10    0.023
  23. BD (   1) C  11 - H  19        /192. RY*(   1) C   6                    1.83    2.06    0.055
  23. BD (   1) C  11 - H  19        /195. RY*(   4) C   6                    0.99    2.82    0.048
  23. BD (   1) C  11 - H  19        /296. RY*(   1) C  10                    2.17    2.29    0.063
  23. BD (   1) C  11 - H  19        /299. RY*(   4) C  10                    0.64    2.24    0.034
  23. BD (   1) C  11 - H  19        /399. RY*(   1) H  18                    0.69    1.66    0.030
  23. BD (   1) C  11 - H  19        /434. BD*(   1) C   6 - C   7            5.52    1.18    0.072
  23. BD (   1) C  11 - H  19        /441. BD*(   1) C   9 - C  10            4.78    1.23    0.068
  23. BD (   1) C  11 - H  19        /443. BD*(   1) C  10 - C  11            0.59    1.27    0.025
  23. BD (   1) C  11 - H  19        /445. BD*(   1) C  10 - H  18            0.67    1.12    0.025
  24. BD (   1) C  12 - H  20        /431. BD*(   1) C   4 - O   5            3.86    1.27    0.063
  24. BD (   1) C  12 - H  20        /432. BD*(   2) C   4 - O   5            6.21    0.67    0.059
  25. BD (   1) C  12 - H  21        /431. BD*(   1) C   4 - O   5            2.32    1.27    0.049
  25. BD (   1) C  12 - H  21        /432. BD*(   2) C   4 - O   5           10.19    0.67    0.075
  26. BD (   1) C  12 - H  22        /429. BD*(   1) C   2 - C   4            5.51    0.95    0.066
  27. CR (   1) C   1                / 85. RY*(   2) C   2                    1.04   11.30    0.097
  27. CR (   1) C   1                /192. RY*(   1) C   6                    1.32   11.66    0.111
  27. CR (   1) C   1                /197. RY*(   6) C   6                    0.63   11.62    0.076
  27. CR (   1) C   1                /434. BD*(   1) C   6 - C   7            0.54   10.77    0.068
  27. CR (   1) C   1                /435. BD*(   1) C   6 - C  11            0.92   10.77    0.089
  28. CR (   1) C   2                / 60. RY*(   3) C   1                    0.88   11.26    0.089
  28. CR (   1) C   2                /141. RY*(   2) C   4                    0.99   11.95    0.097
  28. CR (   1) C   2                /425. BD*(   1) C   1 - C   6            0.64   10.84    0.074
  28. CR (   1) C   2                /428. BD*(   1) C   2 -Br   3            1.64   10.35    0.117
  43. CR (   1) C   4                /169. RY*(   4) O   5                    0.76   11.21    0.082
  43. CR (   1) C   4                /352. RY*(   5) C  12                    0.58   11.66    0.074
  44. CR (   1) O   5                /140. RY*(   1) C   4                    6.85   20.13    0.333
  44. CR (   1) O   5                /433. BD*(   1) C   4 - C  12            0.52   19.39    0.090
  45. CR (   1) C   6                / 58. RY*(   1) C   1                    0.66   11.32    0.078
  45. CR (   1) C   6                / 60. RY*(   3) C   1                    0.80   11.19    0.084
  45. CR (   1) C   6                /219. RY*(   2) C   7                    1.11   11.56    0.101
  45. CR (   1) C   6                /323. RY*(   2) C  11                    0.94   11.61    0.093
  45. CR (   1) C   6                /424. BD*(   1) C   1 - C   2            0.82   10.61    0.083
  46. CR (   1) C   7                /192. RY*(   1) C   6                    1.05   11.61    0.099
  46. CR (   1) C   7                /245. RY*(   2) C   8                    1.28   11.72    0.109
  46. CR (   1) C   7                /425. BD*(   1) C   1 - C   6            0.66   10.77    0.076
  46. CR (   1) C   7                /435. BD*(   1) C   6 - C  11            0.61   10.72    0.073
  47. CR (   1) C   8                /219. RY*(   2) C   7                    0.91   11.54    0.092
  47. CR (   1) C   8                /271. RY*(   2) C   9                    1.03   11.73    0.098
  47. CR (   1) C   8                /390. RY*(   2) H  16                    0.58   11.96    0.074
  48. CR (   1) C   9                /245. RY*(   2) C   8                    1.00   11.72    0.096
  48. CR (   1) C   9                /247. RY*(   4) C   8                    0.55   11.64    0.072
  48. CR (   1) C   9                /297. RY*(   2) C  10                    0.95   11.68    0.094
  48. CR (   1) C   9                /395. RY*(   2) H  17                    0.58   12.03    0.074
  49. CR (   1) C  10                /271. RY*(   2) C   9                    1.02   11.73    0.098
  49. CR (   1) C  10                /323. RY*(   2) C  11                    0.87   11.58    0.090
  49. CR (   1) C  10                /400. RY*(   2) H  18                    0.59   11.99    0.075
  49. CR (   1) C  10                /435. BD*(   1) C   6 - C  11            0.50   10.70    0.066
  50. CR (   1) C  11                /193. RY*(   2) C   6                    1.55   11.74    0.121
  50. CR (   1) C  11                /297. RY*(   2) C  10                    1.42   11.68    0.115
  50. CR (   1) C  11                /425. BD*(   1) C   1 - C   6            0.86   10.77    0.086
  50. CR (   1) C  11                /434. BD*(   1) C   6 - C   7            0.54   10.72    0.068
  50. CR (   1) C  11                /441. BD*(   1) C   9 - C  10            0.51   10.77    0.067
  51. CR (   1) C  12                /141. RY*(   2) C   4                    1.03   11.84    0.099
  51. CR (   1) C  12                /431. BD*(   1) C   4 - O   5            0.73   10.81    0.079
  52. LP (   1)Br   3                / 88. RY*(   5) C   2                    0.65    2.43    0.035
  52. LP (   1)Br   3                /426. BD*(   2) C   1 - C   6            0.63    1.05    0.024
  53. LP (   2)Br   3                / 84. RY*(   1) C   2                    0.70    1.29    0.027
  53. LP (   2)Br   3                / 86. RY*(   3) C   2                    0.70    1.53    0.029
  53. LP (   2)Br   3                /429. BD*(   1) C   2 - C   4            3.06    0.75    0.044
  53. LP (   2)Br   3                /430. BD*(   1) C   2 - H  14            2.73    0.83    0.043
  53. LP (   2)Br   3                /432. BD*(   2) C   4 - O   5            1.62    0.47    0.025
  54. LP (   3)Br   3                / 85. RY*(   2) C   2                    1.10    1.45    0.036
  54. LP (   3)Br   3                /424. BD*(   1) C   1 - C   2            2.63    0.82    0.042
  54. LP (   3)Br   3                /426. BD*(   2) C   1 - C   6            7.29    0.44    0.051
  54. LP (   3)Br   3                /429. BD*(   1) C   2 - C   4            1.02    0.74    0.025
  54. LP (   3)Br   3                /430. BD*(   1) C   2 - H  14            0.62    0.82    0.020
  54. LP (   3)Br   3                /432. BD*(   2) C   4 - O   5            1.10    0.46    0.020
  55. LP (   1) O   5                /140. RY*(   1) C   4                   19.53    1.98    0.176
  55. LP (   1) O   5                /167. RY*(   2) O   5                    0.80    2.60    0.041
  55. LP (   1) O   5                /429. BD*(   1) C   2 - C   4            2.25    1.17    0.047
  55. LP (   1) O   5                /433. BD*(   1) C   4 - C  12            2.79    1.25    0.053
  56. LP (   2) O   5                /141. RY*(   2) C   4                    0.76    2.07    0.037
  56. LP (   2) O   5                /143. RY*(   4) C   4                    1.44    3.39    0.064
  56. LP (   2) O   5                /425. BD*(   1) C   1 - C   6            0.52    0.95    0.020
  56. LP (   2) O   5                /429. BD*(   1) C   2 - C   4           36.49    0.72    0.145
  56. LP (   2) O   5                /433. BD*(   1) C   4 - C  12           24.91    0.80    0.128
  57. LP*(   1) C   9                /248. RY*(   5) C   8                    1.49    0.74    0.047
  57. LP*(   1) C   9                /274. RY*(   5) C   9                    2.63    0.73    0.062
  57. LP*(   1) C   9                /300. RY*(   5) C  10                    1.47    0.77    0.048
  57. LP*(   1) C   9                /437. BD*(   2) C   7 - C   8           45.30    0.19    0.119
  57. LP*(   1) C   9                /444. BD*(   2) C  10 - C  11           44.57    0.19    0.119
 426. BD*(   2) C   1 - C   6        /428. BD*(   1) C   2 -Br   3            4.53    0.05    0.048
 426. BD*(   2) C   1 - C   6        /429. BD*(   1) C   2 - C   4            0.68    0.30    0.038
 426. BD*(   2) C   1 - C   6        /437. BD*(   2) C   7 - C   8           36.89    0.02    0.062
 426. BD*(   2) C   1 - C   6        /444. BD*(   2) C  10 - C  11           38.01    0.02    0.066
 437. BD*(   2) C   7 - C   8        /223. RY*(   6) C   7                    0.51    1.39    0.078
 437. BD*(   2) C   7 - C   8        /248. RY*(   5) C   8                    1.08    0.55    0.072
 444. BD*(   2) C  10 - C  11        /300. RY*(   5) C  10                    0.93    0.58    0.070


 Natural Bond Orbitals (Summary):

                                                            Principal Delocalizations
           NBO                        Occupancy    Energy   (geminal,vicinal,remote)
 ====================================================================================
 Molecular unit  1  (C10H10OBr)
     1. BD (   1) C   1 - C   2          1.98581    -0.85696  434(v),433(v),193(v),140(v)
                                                    425(g)
     2. BD (   1) C   1 - C   6          1.98375    -0.90637  435(g),434(g),436(v),443(v)
                                                    429(v),84(v),218(v),322(v)
                                                    424(g)
     3. BD (   2) C   1 - C   6          1.55529    -0.37433  437(v),444(v),426(g),428(v)
                                                    221(v),325(v),429(v),57(r)
     4. BD (   1) C   1 - H  13          1.97197    -0.68380  435(v),430(v),193(v),192(v)
                                                    85(v),87(v),84(v),194(v)
                                                    86(v)
     5. BD (   1) C   2 -Br   3          1.91794    -0.69407  426(v),432(v),425(v),59(v)
                                                    142(v)
     6. BD (   1) C   2 - C   4          1.97514    -0.77807  425(v),426(v),449(v),166(v)
                                                    348(v),58(v)
     7. BD (   1) C   2 - H  14          1.97713    -0.68136  427(v),431(v),432(v),58(v)
                                                    428(g),141(v),111(v)
     8. BD (   1) C   4 - O   5          1.99710    -1.25736  140(g),430(v),433(g)
     9. BD (   2) C   4 - O   5          1.98166    -0.51841  428(v),448(v),447(v),430(v)
    10. BD (   1) C   4 - C  12          1.98977    -0.78477  424(v),166(v),84(v)
    11. BD (   1) C   6 - C   7          1.97661    -0.83662  424(v),440(v),446(v),425(g)
                                                    435(g),245(v),436(g),58(v)
                                                    244(v),322(v)
    12. BD (   1) C   6 - C  11          1.97835    -0.84108  445(v),425(g),427(v),438(v)
                                                    434(g),443(g),297(v),60(v)
                                                    296(v),218(v)
    13. BD (   1) C   7 - C   8          1.98526    -0.87242  425(v),442(v),439(g),193(v)
                                                    434(g),270(v),440(g),271(v)
                                                    192(v),438(g)
    14. BD (   2) C   7 - C   8          1.62937    -0.36277  57(v),426(v),274(v),437(g)
    15. BD (   1) C   7 - H  15          1.97728    -0.66392  435(v),439(v),244(v),193(v)
                                                    192(v),194(v),389(r),247(v)
                                                    424(r),440(v)
    16. BD (   1) C   8 - C   9          1.98505    -0.85586  438(v),445(v),436(g),219(v)
                                                    296(v),441(g),297(v),218(v)
                                                    440(g)
    17. BD (   1) C   8 - H  16          1.97713    -0.65011  434(v),441(v),218(v),270(v)
                                                    436(g),442(v),438(v)
    18. BD (   1) C   9 - C  10          1.98500    -0.85282  446(v),440(v),443(g),323(v)
                                                    244(v),439(g),245(v),322(v)
                                                    445(g)
    19. BD (   1) C   9 - H  17          1.97919    -0.65887  436(v),443(v),296(v),244(v)
                                                    440(v),445(v),246(v),298(v)
                                                    399(r)
    20. BD (   1) C  10 - C  11          1.98489    -0.87427  425(v),442(v),192(v),441(g)
                                                    435(g),270(v),445(g),271(v)
                                                    446(g)
    21. BD (   2) C  10 - C  11          1.65517    -0.36702  57(v),426(v),274(v),444(g)
    22. BD (   1) C  10 - H  18          1.97739    -0.65018  435(v),439(v),322(v),270(v)
                                                    443(g),446(v),442(v)
    23. BD (   1) C  11 - H  19          1.97720    -0.66757  434(v),441(v),296(v),192(v)
                                                    195(v),399(r),445(v),299(v)
                                                    443(g)
    24. BD (   1) C  12 - H  20          1.97114    -0.62508  432(v),431(v)
    25. BD (   1) C  12 - H  21          1.95975    -0.62052  432(v),431(v)
    26. BD (   1) C  12 - H  22          1.98545    -0.62505  429(v)
    27. CR (   1) C   1                  1.99916   -10.26463  192(v),85(v),435(v),197(v)
                                                    434(v)
    28. CR (   1) C   2                  1.99905   -10.27645  428(g),141(v),60(v),425(v)
    29. CR (   1)Br   3                  2.00000  -471.70222   
    30. CR (   2)Br   3                  2.00000   -71.12363   
    31. CR (   3)Br   3                  1.99984   -11.69181   
    32. CR (   4)Br   3                  2.00000   -56.42236   
    33. CR (   5)Br   3                  1.99997    -6.77068   
    34. CR (   6)Br   3                  2.00000   -56.42498   
    35. CR (   7)Br   3                  1.99990    -6.77749   
    36. CR (   8)Br   3                  2.00000   -56.42196   
    37. CR (   9)Br   3                  1.99998    -6.76956   
    38. CR (  10)Br   3                  1.99987    -2.79128   
    39. CR (  11)Br   3                  1.99997    -2.78338   
    40. CR (  12)Br   3                  1.99989    -2.79025   
    41. CR (  13)Br   3                  1.99984    -2.79123   
    42. CR (  14)Br   3                  1.99994    -2.78530   
    43. CR (   1) C   4                  1.99943   -10.30060  169(v),352(v)
    44. CR (   1) O   5                  1.99975   -18.98856  140(v),433(v)
    45. CR (   1) C   6                  1.99906   -10.20893  219(v),323(v),424(v),60(v)
                                                    58(v)
    46. CR (   1) C   7                  1.99917   -10.20910  245(v),192(v),425(v),435(v)
    47. CR (   1) C   8                  1.99920   -10.18469  271(v),219(v),390(v)
    48. CR (   1) C   9                  1.99925   -10.21264  245(v),297(v),395(v),247(v)
    49. CR (   1) C  10                  1.99921   -10.18624  271(v),323(v),400(v),435(v)
    50. CR (   1) C  11                  1.99914   -10.20767  193(v),297(v),425(v),434(v)
                                                    441(v)
    51. CR (   1) C  12                  1.99936   -10.16534  141(v),431(v)
    52. LP (   1)Br   3                  1.99637    -1.02941  426(r),88(v)
    53. LP (   2)Br   3                  1.97338    -0.42683  429(v),430(v),432(r),84(v)
                                                    86(v)
    54. LP (   3)Br   3                  1.92104    -0.41830  426(r),424(v),85(v),432(r)
                                                    429(v),430(v)
    55. LP (   1) O   5                  1.97630    -0.84412  140(v),433(v),429(v),167(g)
    56. LP (   2) O   5                  1.87300    -0.39285  429(v),433(v),143(v),141(v)
                                                    425(r)
    57. LP*(   1) C   9                  0.78953    -0.15020  437(v),444(v),274(g),248(v)
                                                    300(v)
    58. RY*(   1) C   1                  0.00590     1.10868   
    59. RY*(   2) C   1                  0.00361     0.74300   
    60. RY*(   3) C   1                  0.00325     0.98081   
    61. RY*(   4) C   1                  0.00114     1.19250   
    62. RY*(   5) C   1                  0.00092     1.77380   
    63. RY*(   6) C   1                  0.00042     1.22548   
    64. RY*(   7) C   1                  0.00037     1.37591   
    65. RY*(   8) C   1                  0.00026     2.29477   
    66. RY*(   9) C   1                  0.00020     2.60641   
    67. RY*(  10) C   1                  0.00016     1.79339   
    68. RY*(  11) C   1                  0.00012     1.93117   
    69. RY*(  12) C   1                  0.00008     2.83158   
    70. RY*(  13) C   1                  0.00005     2.62723   
    71. RY*(  14) C   1                  0.00002     2.92268   
    72. RY*(  15) C   1                  0.00003     3.15946   
    73. RY*(  16) C   1                  0.00001     4.62308   
    74. RY*(  17) C   1                  0.00000    19.43648   
    75. RY*(  18) C   1                  0.00001     3.11481   
    76. RY*(  19) C   1                  0.00000     3.24554   
    77. RY*(  20) C   1                  0.00001     3.71424   
    78. RY*(  21) C   1                  0.00000     3.33340   
    79. RY*(  22) C   1                  0.00000     3.32104   
    80. RY*(  23) C   1                  0.00001     3.69532   
    81. RY*(  24) C   1                  0.00000     3.45424   
    82. RY*(  25) C   1                  0.00000     3.92142   
    83. RY*(  26) C   1                  0.00000     3.58158   
    84. RY*(   1) C   2                  0.00561     0.86340   
    85. RY*(   2) C   2                  0.00451     1.03572   
    86. RY*(   3) C   2                  0.00309     1.09886   
    87. RY*(   4) C   2                  0.00184     1.48290   
    88. RY*(   5) C   2                  0.00120     1.40155   
    89. RY*(   6) C   2                  0.00073     1.42015   
    90. RY*(   7) C   2                  0.00053     1.31797   
    91. RY*(   8) C   2                  0.00037     1.31917   
    92. RY*(   9) C   2                  0.00028     1.43397   
    93. RY*(  10) C   2                  0.00023     1.98602   
    94. RY*(  11) C   2                  0.00020     2.20071   
    95. RY*(  12) C   2                  0.00011     1.63013   
    96. RY*(  13) C   2                  0.00011     1.81516   
    97. RY*(  14) C   2                  0.00006     3.26631   
    98. RY*(  15) C   2                  0.00003     3.22195   
    99. RY*(  16) C   2                  0.00000     3.10796   
   100. RY*(  17) C   2                  0.00001     3.12990   
   101. RY*(  18) C   2                  0.00001     3.91022   
   102. RY*(  19) C   2                  0.00001     3.24938   
   103. RY*(  20) C   2                  0.00000     3.73651   
   104. RY*(  21) C   2                  0.00000    20.47054   
   105. RY*(  22) C   2                  0.00001     3.17913   
   106. RY*(  23) C   2                  0.00000     3.41534   
   107. RY*(  24) C   2                  0.00000     3.37767   
   108. RY*(  25) C   2                  0.00001     3.57151   
   109. RY*(  26) C   2                  0.00000     3.37879   
   110. RY*(   1)Br   3                  0.00165     0.87855   
   111. RY*(   2)Br   3                  0.00146     0.86342   
   112. RY*(   3)Br   3                  0.00031     1.01435   
   113. RY*(   4)Br   3                  0.00030     1.36721   
   114. RY*(   5)Br   3                  0.00017     0.95756   
   115. RY*(   6)Br   3                  0.00016     0.96408   
   116. RY*(   7)Br   3                  0.00010     0.93970   
   117. RY*(   8)Br   3                  0.00005     1.11325   
   118. RY*(   9)Br   3                  0.00001     1.69663   
   119. RY*(  10)Br   3                  0.00001     1.39197   
   120. RY*(  11)Br   3                  0.00000     4.15536   
   121. RY*(  12)Br   3                  0.00001     1.39778   
   122. RY*(  13)Br   3                  0.00000     7.28761   
   123. RY*(  14)Br   3                  0.00000     4.05952   
   124. RY*(  15)Br   3                  0.00000     1.62731   
   125. RY*(  16)Br   3                  0.00001     1.44782   
   126. RY*(  17)Br   3                  0.00000     4.00227   
   127. RY*(  18)Br   3                  0.00001     1.60696   
   128. RY*(  19)Br   3                  0.00001     1.34161   
   129. RY*(  20)Br   3                  0.00000     4.17978   
   130. RY*(  21)Br   3                  0.00000     1.68252   
   131. RY*(  22)Br   3                  0.00001     1.44053   
   132. RY*(  23)Br   3                  0.00000     4.08581   
   133. RY*(  24)Br   3                  0.00000     1.61807   
   134. RY*(  25)Br   3                  0.00000     1.63134   
   135. RY*(  26)Br   3                  0.00000     1.65245   
   136. RY*(  27)Br   3                  0.00000     1.66214   
   137. RY*(  28)Br   3                  0.00000     1.64265   
   138. RY*(  29)Br   3                  0.00000     1.89750   
   139. RY*(  30)Br   3                  0.00000     1.76188   
   140. RY*(   1) C   4                  0.01604     1.13759   
   141. RY*(   2) C   4                  0.00410     1.67741   
   142. RY*(   3) C   4                  0.00208     1.19050   
   143. RY*(   4) C   4                  0.00123     2.99758   
   144. RY*(   5) C   4                  0.00057     2.71286   
   145. RY*(   6) C   4                  0.00049     2.95340   
   146. RY*(   7) C   4                  0.00027     1.61435   
   147. RY*(   8) C   4                  0.00020     2.39311   
   148. RY*(   9) C   4                  0.00015     2.29071   
   149. RY*(  10) C   4                  0.00007     2.77036   
   150. RY*(  11) C   4                  0.00003     2.26748   
   151. RY*(  12) C   4                  0.00000    20.10840   
   152. RY*(  13) C   4                  0.00000     3.30835   
   153. RY*(  14) C   4                  0.00001     1.96383   
   154. RY*(  15) C   4                  0.00000     2.71876   
   155. RY*(  16) C   4                  0.00000     2.16749   
   156. RY*(  17) C   4                  0.00000     2.89916   
   157. RY*(  18) C   4                  0.00000     2.75796   
   158. RY*(  19) C   4                  0.00000     2.90628   
   159. RY*(  20) C   4                  0.00000     3.91367   
   160. RY*(  21) C   4                  0.00000     3.76724   
   161. RY*(  22) C   4                  0.00000     3.77151   
   162. RY*(  23) C   4                  0.00000     3.69639   
   163. RY*(  24) C   4                  0.00000     3.78662   
   164. RY*(  25) C   4                  0.00000     3.41965   
   165. RY*(  26) C   4                  0.00000     3.48646   
   166. RY*(   1) O   5                  0.00263     1.03091   
   167. RY*(   2) O   5                  0.00049     1.75352   
   168. RY*(   3) O   5                  0.00041     0.97316   
   169. RY*(   4) O   5                  0.00022     0.91153   
   170. RY*(   5) O   5                  0.00013     2.48760   
   171. RY*(   6) O   5                  0.00011     2.85429   
   172. RY*(   7) O   5                  0.00007     2.46197   
   173. RY*(   8) O   5                  0.00002     3.40354   
   174. RY*(   9) O   5                  0.00003     2.76998   
   175. RY*(  10) O   5                  0.00003     2.76197   
   176. RY*(  11) O   5                  0.00000     6.05934   
   177. RY*(  12) O   5                  0.00000     2.72296   
   178. RY*(  13) O   5                  0.00000     6.13779   
   179. RY*(  14) O   5                  0.00000    42.62396   
   180. RY*(  15) O   5                  0.00000     6.41367   
   181. RY*(  16) O   5                  0.00001     2.85971   
   182. RY*(  17) O   5                  0.00000     6.16398   
   183. RY*(  18) O   5                  0.00001     2.12385   
   184. RY*(  19) O   5                  0.00000     6.43765   
   185. RY*(  20) O   5                  0.00000     5.51428   
   186. RY*(  21) O   5                  0.00000     5.50071   
   187. RY*(  22) O   5                  0.00000     5.78240   
   188. RY*(  23) O   5                  0.00000     5.48216   
   189. RY*(  24) O   5                  0.00000     5.35927   
   190. RY*(  25) O   5                  0.00000     5.24701   
   191. RY*(  26) O   5                  0.00000     5.18402   
   192. RY*(   1) C   6                  0.00731     1.39699   
   193. RY*(   2) C   6                  0.00604     1.52916   
   194. RY*(   3) C   6                  0.00179     2.21402   
   195. RY*(   4) C   6                  0.00142     2.15678   
   196. RY*(   5) C   6                  0.00109     1.11969   
   197. RY*(   6) C   6                  0.00092     1.35116   
   198. RY*(   7) C   6                  0.00037     2.53742   
   199. RY*(   8) C   6                  0.00033     2.30990   
   200. RY*(   9) C   6                  0.00024     1.81117   
   201. RY*(  10) C   6                  0.00016     2.07035   
   202. RY*(  11) C   6                  0.00013     1.76484   
   203. RY*(  12) C   6                  0.00012     1.57618   
   204. RY*(  13) C   6                  0.00009     3.26797   
   205. RY*(  14) C   6                  0.00006     3.16661   
   206. RY*(  15) C   6                  0.00002     3.12366   
   207. RY*(  16) C   6                  0.00000     1.79927   
   208. RY*(  17) C   6                  0.00000     3.62434   
   209. RY*(  18) C   6                  0.00000     1.22272   
   210. RY*(  19) C   6                  0.00000    20.92748   
   211. RY*(  20) C   6                  0.00001     3.82703   
   212. RY*(  21) C   6                  0.00000     4.03896   
   213. RY*(  22) C   6                  0.00000     3.48491   
   214. RY*(  23) C   6                  0.00001     3.90001   
   215. RY*(  24) C   6                  0.00000     3.53458   
   216. RY*(  25) C   6                  0.00001     3.71909   
   217. RY*(  26) C   6                  0.00000     3.55428   
   218. RY*(   1) C   7                  0.00468     1.52614   
   219. RY*(   2) C   7                  0.00186     1.35537   
   220. RY*(   3) C   7                  0.00127     1.57366   
   221. RY*(   4) C   7                  0.00096     1.05610   
   222. RY*(   5) C   7                  0.00081     1.67432   
   223. RY*(   6) C   7                  0.00057     1.42711   
   224. RY*(   7) C   7                  0.00031     1.69475   
   225. RY*(   8) C   7                  0.00013     1.97033   
   226. RY*(   9) C   7                  0.00009     1.94868   
   227. RY*(  10) C   7                  0.00005     3.81448   
   228. RY*(  11) C   7                  0.00003     2.74113   
   229. RY*(  12) C   7                  0.00003     3.10586   
   230. RY*(  13) C   7                  0.00001     2.65328   
   231. RY*(  14) C   7                  0.00001     1.53887   
   232. RY*(  15) C   7                  0.00000     2.95246   
   233. RY*(  16) C   7                  0.00000     2.45666   
   234. RY*(  17) C   7                  0.00000     3.60057   
   235. RY*(  18) C   7                  0.00000     1.64626   
   236. RY*(  19) C   7                  0.00000     3.33793   
   237. RY*(  20) C   7                  0.00001     3.54435   
   238. RY*(  21) C   7                  0.00000    20.78067   
   239. RY*(  22) C   7                  0.00000     3.32175   
   240. RY*(  23) C   7                  0.00000     3.75103   
   241. RY*(  24) C   7                  0.00000     3.49611   
   242. RY*(  25) C   7                  0.00000     3.62918   
   243. RY*(  26) C   7                  0.00000     3.47595   
   244. RY*(   1) C   8                  0.00485     1.64338   
   245. RY*(   2) C   8                  0.00214     1.50756   
   246. RY*(   3) C   8                  0.00088     1.32859   
   247. RY*(   4) C   8                  0.00085     1.42384   
   248. RY*(   5) C   8                  0.00068     0.59036   
   249. RY*(   6) C   8                  0.00020     2.90327   
   250. RY*(   7) C   8                  0.00016     1.73033   
   251. RY*(   8) C   8                  0.00012     1.95051   
   252. RY*(   9) C   8                  0.00006     2.37295   
   253. RY*(  10) C   8                  0.00004     2.11539   
   254. RY*(  11) C   8                  0.00003     3.27490   
   255. RY*(  12) C   8                  0.00000    21.26781   
   256. RY*(  13) C   8                  0.00001     2.22517   
   257. RY*(  14) C   8                  0.00000     1.81475   
   258. RY*(  15) C   8                  0.00000     2.64737   
   259. RY*(  16) C   8                  0.00000     1.36580   
   260. RY*(  17) C   8                  0.00000     3.46680   
   261. RY*(  18) C   8                  0.00000     1.46912   
   262. RY*(  19) C   8                  0.00001     2.32887   
   263. RY*(  20) C   8                  0.00000     3.84771   
   264. RY*(  21) C   8                  0.00000     3.87843   
   265. RY*(  22) C   8                  0.00000     3.50155   
   266. RY*(  23) C   8                  0.00000     3.74147   
   267. RY*(  24) C   8                  0.00000     3.40818   
   268. RY*(  25) C   8                  0.00000     3.60249   
   269. RY*(  26) C   8                  0.00000     3.45735   
   270. RY*(   1) C   9                  0.00478     1.57243   
   271. RY*(   2) C   9                  0.00201     1.54827   
   272. RY*(   3) C   9                  0.00081     1.27417   
   273. RY*(   4) C   9                  0.00068     1.62969   
   274. RY*(   5) C   9                  0.00042     0.58316   
   275. RY*(   6) C   9                  0.00030     3.18177   
   276. RY*(   7) C   9                  0.00014     1.87742   
   277. RY*(   8) C   9                  0.00010     1.84455   
   278. RY*(   9) C   9                  0.00006     2.96506   
   279. RY*(  10) C   9                  0.00004     2.99758   
   280. RY*(  11) C   9                  0.00004     2.13922   
   281. RY*(  12) C   9                  0.00000     1.46758   
   282. RY*(  13) C   9                  0.00000    21.30259   
   283. RY*(  14) C   9                  0.00000     1.32742   
   284. RY*(  15) C   9                  0.00001     2.08548   
   285. RY*(  16) C   9                  0.00000     1.31906   
   286. RY*(  17) C   9                  0.00000     3.52690   
   287. RY*(  18) C   9                  0.00000     2.87898   
   288. RY*(  19) C   9                  0.00001     2.79515   
   289. RY*(  20) C   9                  0.00000     3.65786   
   290. RY*(  21) C   9                  0.00000     3.81891   
   291. RY*(  22) C   9                  0.00000     3.56673   
   292. RY*(  23) C   9                  0.00000     3.43144   
   293. RY*(  24) C   9                  0.00000     3.47626   
   294. RY*(  25) C   9                  0.00000     3.34065   
   295. RY*(  26) C   9                  0.00000     3.21494   
   296. RY*(   1) C  10                  0.00489     1.62528   
   297. RY*(   2) C  10                  0.00218     1.46893   
   298. RY*(   3) C  10                  0.00093     1.31118   
   299. RY*(   4) C  10                  0.00079     1.57333   
   300. RY*(   5) C  10                  0.00067     0.62006   
   301. RY*(   6) C  10                  0.00019     3.03742   
   302. RY*(   7) C  10                  0.00014     1.62729   
   303. RY*(   8) C  10                  0.00012     1.92451   
   304. RY*(   9) C  10                  0.00007     2.67282   
   305. RY*(  10) C  10                  0.00005     2.01488   
   306. RY*(  11) C  10                  0.00003     3.36291   
   307. RY*(  12) C  10                  0.00001     2.37430   
   308. RY*(  13) C  10                  0.00000    21.09409   
   309. RY*(  14) C  10                  0.00000     1.56654   
   310. RY*(  15) C  10                  0.00000     2.94203   
   311. RY*(  16) C  10                  0.00001     2.13591   
   312. RY*(  17) C  10                  0.00000     3.34636   
   313. RY*(  18) C  10                  0.00000     1.17703   
   314. RY*(  19) C  10                  0.00000     1.52708   
   315. RY*(  20) C  10                  0.00000     3.67870   
   316. RY*(  21) C  10                  0.00000     4.08475   
   317. RY*(  22) C  10                  0.00000     3.35237   
   318. RY*(  23) C  10                  0.00000     3.68016   
   319. RY*(  24) C  10                  0.00000     3.50451   
   320. RY*(  25) C  10                  0.00000     3.68065   
   321. RY*(  26) C  10                  0.00000     3.50988   
   322. RY*(   1) C  11                  0.00440     1.56039   
   323. RY*(   2) C  11                  0.00199     1.39782   
   324. RY*(   3) C  11                  0.00113     1.55924   
   325. RY*(   4) C  11                  0.00100     0.86100   
   326. RY*(   5) C  11                  0.00076     1.60234   
   327. RY*(   6) C  11                  0.00054     1.61332   
   328. RY*(   7) C  11                  0.00034     1.72513   
   329. RY*(   8) C  11                  0.00013     2.11915   
   330. RY*(   9) C  11                  0.00012     1.85391   
   331. RY*(  10) C  11                  0.00005     1.95748   
   332. RY*(  11) C  11                  0.00005     3.51344   
   333. RY*(  12) C  11                  0.00005     2.99296   
   334. RY*(  13) C  11                  0.00001     3.08811   
   335. RY*(  14) C  11                  0.00002     2.85618   
   336. RY*(  15) C  11                  0.00000     2.67770   
   337. RY*(  16) C  11                  0.00000    20.71085   
   338. RY*(  17) C  11                  0.00001     3.44305   
   339. RY*(  18) C  11                  0.00000     2.66836   
   340. RY*(  19) C  11                  0.00000     1.39624   
   341. RY*(  20) C  11                  0.00001     3.25278   
   342. RY*(  21) C  11                  0.00001     4.08536   
   343. RY*(  22) C  11                  0.00000     3.49016   
   344. RY*(  23) C  11                  0.00000     3.30723   
   345. RY*(  24) C  11                  0.00000     3.40095   
   346. RY*(  25) C  11                  0.00000     3.50657   
   347. RY*(  26) C  11                  0.00000     3.46146   
   348. RY*(   1) C  12                  0.00138     1.21633   
   349. RY*(   2) C  12                  0.00078     1.42148   
   350. RY*(   3) C  12                  0.00055     1.32722   
   351. RY*(   4) C  12                  0.00028     1.41561   
   352. RY*(   5) C  12                  0.00017     1.35793   
   353. RY*(   6) C  12                  0.00009     1.61216   
   354. RY*(   7) C  12                  0.00007     1.48726   
   355. RY*(   8) C  12                  0.00003     2.34032   
   356. RY*(   9) C  12                  0.00002     1.23448   
   357. RY*(  10) C  12                  0.00002     1.33421   
   358. RY*(  11) C  12                  0.00002     2.02858   
   359. RY*(  12) C  12                  0.00000    21.02233   
   360. RY*(  13) C  12                  0.00000     3.17145   
   361. RY*(  14) C  12                  0.00000     1.47290   
   362. RY*(  15) C  12                  0.00000     2.92373   
   363. RY*(  16) C  12                  0.00001     1.54310   
   364. RY*(  17) C  12                  0.00000     3.04788   
   365. RY*(  18) C  12                  0.00000     3.24569   
   366. RY*(  19) C  12                  0.00000     2.96642   
   367. RY*(  20) C  12                  0.00000     3.35747   
   368. RY*(  21) C  12                  0.00000     3.27108   
   369. RY*(  22) C  12                  0.00000     3.35989   
   370. RY*(  23) C  12                  0.00000     3.21483   
   371. RY*(  24) C  12                  0.00000     3.26747   
   372. RY*(  25) C  12                  0.00000     3.38402   
   373. RY*(  26) C  12                  0.00000     3.44626   
   374. RY*(   1) H  13                  0.00113     1.50675   
   375. RY*(   2) H  13                  0.00013     1.40155   
   376. RY*(   3) H  13                  0.00013     2.78296   
   377. RY*(   4) H  13                  0.00009     2.24521   
   378. RY*(   5) H  13                  0.00002     3.11260   
   379. RY*(   1) H  14                  0.00077     1.44003   
   380. RY*(   2) H  14                  0.00022     2.29071   
   381. RY*(   3) H  14                  0.00012     2.31790   
   382. RY*(   4) H  14                  0.00011     1.90575   
   383. RY*(   5) H  14                  0.00002     3.08676   
   384. RY*(   1) H  15                  0.00039     1.52442   
   385. RY*(   2) H  15                  0.00017     1.45612   
   386. RY*(   3) H  15                  0.00012     2.78584   
   387. RY*(   4) H  15                  0.00009     2.21223   
   388. RY*(   5) H  15                  0.00001     3.10127   
   389. RY*(   1) H  16                  0.00029     1.02270   
   390. RY*(   2) H  16                  0.00019     1.78021   
   391. RY*(   3) H  16                  0.00010     2.21642   
   392. RY*(   4) H  16                  0.00007     2.81254   
   393. RY*(   5) H  16                  0.00002     3.16080   
   394. RY*(   1) H  17                  0.00025     0.95717   
   395. RY*(   2) H  17                  0.00017     1.81910   
   396. RY*(   3) H  17                  0.00009     2.23059   
   397. RY*(   4) H  17                  0.00008     2.79577   
   398. RY*(   5) H  17                  0.00002     3.14473   
   399. RY*(   1) H  18                  0.00030     0.99356   
   400. RY*(   2) H  18                  0.00019     1.80286   
   401. RY*(   3) H  18                  0.00009     2.21477   
   402. RY*(   4) H  18                  0.00007     2.82247   
   403. RY*(   5) H  18                  0.00002     3.15995   
   404. RY*(   1) H  19                  0.00059     1.57784   
   405. RY*(   2) H  19                  0.00014     1.54496   
   406. RY*(   3) H  19                  0.00010     2.23302   
   407. RY*(   4) H  19                  0.00011     2.71740   
   408. RY*(   5) H  19                  0.00002     3.13718   
   409. RY*(   1) H  20                  0.00023     1.18814   
   410. RY*(   2) H  20                  0.00012     2.06461   
   411. RY*(   3) H  20                  0.00009     1.76057   
   412. RY*(   4) H  20                  0.00006     2.13805   
   413. RY*(   5) H  20                  0.00001     3.02692   
   414. RY*(   1) H  21                  0.00025     1.75935   
   415. RY*(   2) H  21                  0.00011     2.09297   
   416. RY*(   3) H  21                  0.00008     1.91857   
   417. RY*(   4) H  21                  0.00004     1.31265   
   418. RY*(   5) H  21                  0.00001     2.99138   
   419. RY*(   1) H  22                  0.00041     1.52424   
   420. RY*(   2) H  22                  0.00011     2.23006   
   421. RY*(   3) H  22                  0.00010     1.51630   
   422. RY*(   4) H  22                  0.00007     1.86059   
   423. RY*(   5) H  22                  0.00001     3.04138   
   424. BD*(   1) C   1 - C   2          0.01852     0.40586   
   425. BD*(   1) C   1 - C   6          0.01825     0.55926   
   426. BD*(   2) C   1 - C   6          0.12197     0.02203  444(v),437(v),428(v)
   427. BD*(   1) C   1 - H  13          0.01474     0.44028   
   428. BD*(   1) C   2 -Br   3          0.02448     0.06964   
   429. BD*(   1) C   2 - C   4          0.09995     0.32517   
   430. BD*(   1) C   2 - H  14          0.02154     0.40010   
   431. BD*(   1) C   4 - O   5          0.01348     0.64559   
   432. BD*(   2) C   4 - O   5          0.09105     0.04614   
   433. BD*(   1) C   4 - C  12          0.05337     0.40583   
   434. BD*(   1) C   6 - C   7          0.02327     0.50789   
   435. BD*(   1) C   6 - C  11          0.02846     0.50974   
   436. BD*(   1) C   7 - C   8          0.01155     0.59794   
   437. BD*(   2) C   7 - C   8          0.18307     0.04171  426(v),57(v),444(r),248(g)
                                                    223(g)
   438. BD*(   1) C   7 - H  15          0.01058     0.44780   
   439. BD*(   1) C   8 - C   9          0.01412     0.56447   
   440. BD*(   1) C   8 - H  16          0.01272     0.45450   
   441. BD*(   1) C   9 - C  10          0.01430     0.55747   
   442. BD*(   1) C   9 - H  17          0.01026     0.45601   
   443. BD*(   1) C  10 - C  11          0.01142     0.60296   
   444. BD*(   2) C  10 - C  11          0.17367     0.04331  426(v),57(v),437(r),300(g)
   445. BD*(   1) C  10 - H  18          0.01257     0.45385   
   446. BD*(   1) C  11 - H  19          0.01129     0.44783   
   447. BD*(   1) C  12 - H  20          0.00473     0.41944   
   448. BD*(   1) C  12 - H  21          0.00445     0.41303   
   449. BD*(   1) C  12 - H  22          0.00381     0.43231   
       -------------------------------
              Total Lewis  110.05087  ( 98.2597%)
        Valence non-Lewis    1.79715  (  1.6046%)
        Rydberg non-Lewis    0.15198  (  0.1357%)
       -------------------------------
            Total unit  1  112.00000  (100.0000%)
           Charge unit  1    1.00000
 Unable to Open any file for archive entry.
 1\1\GINC-OLAF-C035\FOpt\RwB97XD\def2TZVP\C10H10Br1O1(1+)\YAROSLAV\31-J
 an-2026\0\\# opt wB97XD/Def2TZVP scrf=(CPCM,solvent=DiChloroEthane) po
 p=nbo\\These are very "NANI?\\1,1\C,-0.6116521387,1.3944470744,0.57077
 96915\C,-0.4575957671,2.1895304865,1.7951181174\Br,-1.3393984577,3.860
 9515897,1.2678638314\C,1.0136453313,2.5266061829,2.1250411909\O,1.8549
 40651,2.4106981636,1.2764057597\C,-1.5147459647,0.3812702741,0.3367086
 804\C,-1.4903402185,-0.2380723396,-0.9468527023\C,-2.3516439936,-1.263
 8009402,-1.2337855176\C,-3.2510532713,-1.688424997,-0.2568928781\C,-3.
 3007481161,-1.0975411517,1.0104619814\C,-2.447380783,-0.0738477537,1.3
 135764005\C,1.2687862995,2.9653440024,3.5293064678\H,0.0800062028,1.66
 06903919,-0.223459068\H,-0.9927904577,1.8218986839,2.6628010385\H,-0.7
 820932782,0.1138054193,-1.685487965\H,-2.3379645028,-1.7400005128,-2.2
 034293739\H,-3.9318711111,-2.4990943816,-0.4841688583\H,-4.0120128599,
 -1.4527023054,1.742163374\H,-2.4853514488,0.3858571803,2.2907745168\H,
 0.5439935454,3.719791002,3.8380960026\H,1.1405091054,2.1030298993,4.18
 89226714\H,2.2810012336,3.3486840317,3.6233866389\\Version=ES64L-G16Re
 vC.01\State=1-A\HF=-3036.309572\RMSD=6.783e-09\RMSF=8.527e-06\Dipole=-
 1.6676646,-2.7254866,0.0372331\Quadrupole=-9.4581944,6.4434061,3.01478
 83,11.9784284,6.0250113,10.4630316\PG=C01 [X(C10H10Br1O1)]\\@
 The archive entry for this job was punched.


 ...THOSE SCIENCES ARE VAIN AND FULL OF ERRORS WHICH 
 ARE NOT BORN FROM EXPERIMENT, THE MOTHER OF CERTAINTY...

                          -- LEONARDO DA VINCI, 1452-1519
 Job cpu time:       0 days 19 hours 19 minutes 55.7 seconds.
 Elapsed time:       0 days  0 hours 33 minutes 37.8 seconds.
 File lengths (MBytes):  RWF=    384 Int=      0 D2E=      0 Chk=     48 Scr=     32
 Normal termination of Gaussian 16 at Sat Jan 31 01:26:35 2026.
