 Entering Gaussian System, Link 0=g16
 Input=c5.gjf
 Output=c5.log
 Initial command:
 /opt/ibs_lib/apps/gaussian/AVX/g16/l1.exe "/opt/ibs_lib/apps/gaussian/AVX/scratch/Gau-2367253.inp" -scrdir="/opt/ibs_lib/apps/gaussian/AVX/scratch/"
 Entering Link 1 = /opt/ibs_lib/apps/gaussian/AVX/g16/l1.exe PID=   2367262.
  
 Copyright (c) 1988-2019, Gaussian, Inc.  All Rights Reserved.
  
 This is part of the Gaussian(R) 16 program.  It is based on
 the Gaussian(R) 09 system (copyright 2009, Gaussian, Inc.),
 the Gaussian(R) 03 system (copyright 2003, Gaussian, Inc.),
 the Gaussian(R) 98 system (copyright 1998, Gaussian, Inc.),
 the Gaussian(R) 94 system (copyright 1995, Gaussian, Inc.),
 the Gaussian 92(TM) system (copyright 1992, Gaussian, Inc.),
 the Gaussian 90(TM) system (copyright 1990, Gaussian, Inc.),
 the Gaussian 88(TM) system (copyright 1988, Gaussian, Inc.),
 the Gaussian 86(TM) system (copyright 1986, Carnegie Mellon
 University), and the Gaussian 82(TM) system (copyright 1983,
 Carnegie Mellon University). Gaussian is a federally registered
 trademark of Gaussian, Inc.
  
 This software contains proprietary and confidential information,
 including trade secrets, belonging to Gaussian, Inc.
  
 This software is provided under written license and may be
 used, copied, transmitted, or stored only in accord with that
 written license.
  
 The following legend is applicable only to US Government
 contracts under FAR:
  
                    RESTRICTED RIGHTS LEGEND
  
 Use, reproduction and disclosure by the US Government is
 subject to restrictions as set forth in subparagraphs (a)
 and (c) of the Commercial Computer Software - Restricted
 Rights clause in FAR 52.227-19.
  
 Gaussian, Inc.
 340 Quinnipiac St., Bldg. 40, Wallingford CT 06492
  
  
 ---------------------------------------------------------------
 Warning -- This program may not be used in any manner that
 competes with the business of Gaussian, Inc. or will provide
 assistance to any competitor of Gaussian, Inc.  The licensee
 of this program is prohibited from giving any competitor of
 Gaussian, Inc. access to this program.  By using this program,
 the user acknowledges that Gaussian, Inc. is engaged in the
 business of creating and licensing software in the field of
 computational chemistry and represents and warrants to the
 licensee that it is not a competitor of Gaussian, Inc. and that
 it will not use this program in any manner prohibited above.
 ---------------------------------------------------------------
  

 Cite this work as:
 Gaussian 16, Revision C.01,
 M. J. Frisch, G. W. Trucks, H. B. Schlegel, G. E. Scuseria, 
 M. A. Robb, J. R. Cheeseman, G. Scalmani, V. Barone, 
 G. A. Petersson, H. Nakatsuji, X. Li, M. Caricato, A. V. Marenich, 
 J. Bloino, B. G. Janesko, R. Gomperts, B. Mennucci, H. P. Hratchian, 
 J. V. Ortiz, A. F. Izmaylov, J. L. Sonnenberg, D. Williams-Young, 
 F. Ding, F. Lipparini, F. Egidi, J. Goings, B. Peng, A. Petrone, 
 T. Henderson, D. Ranasinghe, V. G. Zakrzewski, J. Gao, N. Rega, 
 G. Zheng, W. Liang, M. Hada, M. Ehara, K. Toyota, R. Fukuda, 
 J. Hasegawa, M. Ishida, T. Nakajima, Y. Honda, O. Kitao, H. Nakai, 
 T. Vreven, K. Throssell, J. A. Montgomery, Jr., J. E. Peralta, 
 F. Ogliaro, M. J. Bearpark, J. J. Heyd, E. N. Brothers, K. N. Kudin, 
 V. N. Staroverov, T. A. Keith, R. Kobayashi, J. Normand, 
 K. Raghavachari, A. P. Rendell, J. C. Burant, S. S. Iyengar, 
 J. Tomasi, M. Cossi, J. M. Millam, M. Klene, C. Adamo, R. Cammi, 
 J. W. Ochterski, R. L. Martin, K. Morokuma, O. Farkas, 
 J. B. Foresman, and D. J. Fox, Gaussian, Inc., Wallingford CT, 2019.
 
 ******************************************
 Gaussian 16:  ES64L-G16RevC.01  3-Jul-2019
                15-Sep-2025 
 ******************************************
 %Mem=36GB
 %NProcShared=36
 Will use up to   36 processors via shared memory.
 %Chk=c5.chk
 ----------------------------------------------------------------
 # opt wB97XD/Def2TZVP scrf=(CPCM,solvent=DiChloroEthane) pop=nbo
 ----------------------------------------------------------------
 1/18=20,19=15,26=3,38=1/1,3;
 2/9=110,12=2,17=6,18=5,40=1/2;
 3/5=44,7=101,11=2,25=1,30=1,70=2101,71=1,72=10,74=-58/1,2,3;
 4//1;
 5/5=2,38=5,53=10/2;
 6/7=2,8=2,9=2,10=2,28=1,40=1/1,7;
 7//1,2,3,16;
 1/18=20,19=15,26=3/3(2);
 2/9=110/2;
 99//99;
 2/9=110/2;
 3/5=44,7=101,11=2,25=1,30=1,70=2105,71=1,72=10,74=-58/1,2,3;
 4/5=5,16=3,69=1/1;
 5/5=2,38=5,53=10/2;
 7//1,2,3,16;
 1/18=20,19=15,26=3/3(-5);
 2/9=110/2;
 6/7=2,8=2,9=2,10=2,19=2,28=1,40=1/1,7;
 99/9=1/99;
 ---------
 bromonium
 ---------
 Symbolic Z-matrix:
 Charge =  1 Multiplicity = 1
 Br                    4.44758  -2.95354   3.93131 
 C                     2.56     -3.32991   3.89982 
 C                     3.09713  -2.77448   2.60248 
 C                     1.48551  -2.41291   4.43338 
 H                     2.95582  -3.37977   1.71889 
 H                     2.82876  -1.73587   2.45571 
 H                     1.9401   -1.59315   4.94935 
 H                     0.89801  -2.04083   3.62018 
 H                     0.85701  -2.95498   5.1087 
 H                     2.14646  -4.30164   3.72771 
 

 GradGradGradGradGradGradGradGradGradGradGradGradGradGradGradGradGradGrad
 Berny optimization.
 Initialization pass.
                           ----------------------------
                           !    Initial Parameters    !
                           ! (Angstroms and Degrees)  !
 --------------------------                            --------------------------
 ! Name  Definition              Value          Derivative Info.                !
 --------------------------------------------------------------------------------
 ! R1    R(1,2)                  1.925          estimate D2E/DX2                !
 ! R2    R(1,3)                  1.903          estimate D2E/DX2                !
 ! R3    R(2,3)                  1.51           estimate D2E/DX2                !
 ! R4    R(2,4)                  1.51           estimate D2E/DX2                !
 ! R5    R(2,10)                 1.07           estimate D2E/DX2                !
 ! R6    R(3,5)                  1.0803         estimate D2E/DX2                !
 ! R7    R(3,6)                  1.0827         estimate D2E/DX2                !
 ! R8    R(4,7)                  1.07           estimate D2E/DX2                !
 ! R9    R(4,8)                  1.07           estimate D2E/DX2                !
 ! R10   R(4,9)                  1.07           estimate D2E/DX2                !
 ! A1    A(1,2,4)              124.9762         estimate D2E/DX2                !
 ! A2    A(1,2,10)             123.9982         estimate D2E/DX2                !
 ! A3    A(3,2,4)              109.4708         estimate D2E/DX2                !
 ! A4    A(3,2,10)             109.4713         estimate D2E/DX2                !
 ! A5    A(4,2,10)             109.4711         estimate D2E/DX2                !
 ! A6    A(1,3,5)              127.6776         estimate D2E/DX2                !
 ! A7    A(1,3,6)              111.1498         estimate D2E/DX2                !
 ! A8    A(2,3,5)              116.7494         estimate D2E/DX2                !
 ! A9    A(2,3,6)              112.4047         estimate D2E/DX2                !
 ! A10   A(5,3,6)              113.2144         estimate D2E/DX2                !
 ! A11   A(2,4,7)              109.4714         estimate D2E/DX2                !
 ! A12   A(2,4,8)              109.4714         estimate D2E/DX2                !
 ! A13   A(2,4,9)              109.471          estimate D2E/DX2                !
 ! A14   A(7,4,8)              109.4719         estimate D2E/DX2                !
 ! A15   A(7,4,9)              109.4712         estimate D2E/DX2                !
 ! A16   A(8,4,9)              109.4705         estimate D2E/DX2                !
 ! D1    D(4,2,3,5)           -117.301          estimate D2E/DX2                !
 ! D2    D(4,2,3,6)             15.9538         estimate D2E/DX2                !
 ! D3    D(10,2,3,5)             2.6986         estimate D2E/DX2                !
 ! D4    D(10,2,3,6)           135.9535         estimate D2E/DX2                !
 ! D5    D(1,2,4,7)             -7.8118         estimate D2E/DX2                !
 ! D6    D(1,2,4,8)            112.1893         estimate D2E/DX2                !
 ! D7    D(1,2,4,9)           -127.8117         estimate D2E/DX2                !
 ! D8    D(3,2,4,7)            -81.6071         estimate D2E/DX2                !
 ! D9    D(3,2,4,8)             38.3939         estimate D2E/DX2                !
 ! D10   D(3,2,4,9)            158.3929         estimate D2E/DX2                !
 ! D11   D(10,2,4,7)           158.3931         estimate D2E/DX2                !
 ! D12   D(10,2,4,8)           -81.6058         estimate D2E/DX2                !
 ! D13   D(10,2,4,9)            38.3932         estimate D2E/DX2                !
 --------------------------------------------------------------------------------
 Trust Radius=3.00D-01 FncErr=1.00D-07 GrdErr=1.00D-06 EigMax=2.50D+02 EigMin=1.00D-04
 Number of steps in this run=     49 maximum allowed number of steps=    100.
 GradGradGradGradGradGradGradGradGradGradGradGradGradGradGradGradGradGrad

                          Input orientation:                          
 ---------------------------------------------------------------------
 Center     Atomic      Atomic             Coordinates (Angstroms)
 Number     Number       Type             X           Y           Z
 ---------------------------------------------------------------------
      1         35           0        4.447580   -2.953540    3.931310
      2          6           0        2.560000   -3.329910    3.899820
      3          6           0        3.097130   -2.774480    2.602480
      4          6           0        1.485510   -2.412910    4.433380
      5          1           0        2.955820   -3.379770    1.718890
      6          1           0        2.828760   -1.735870    2.455710
      7          1           0        1.940100   -1.593150    4.949350
      8          1           0        0.898010   -2.040830    3.620180
      9          1           0        0.857010   -2.954980    5.108700
     10          1           0        2.146460   -4.301640    3.727710
 ---------------------------------------------------------------------
                    Distance matrix (angstroms):
                    1          2          3          4          5
     1  Br   0.000000
     2  C    1.924995   0.000000
     3  C    1.903041   1.510001   0.000000
     4  C    3.052575   1.510001   2.465816   0.000000
     5  H    2.702188   2.217119   1.080313   3.234978   0.000000
     6  H    2.506131   2.167637   1.082716   2.484730   1.805950
     7  H    3.028947   2.121821   2.870898   1.069992   3.828782
     8  H    3.678218   2.121824   2.531814   1.069997   3.105197
     9  H    3.778683   2.121824   3.366282   1.070004   4.009521
    10  H    2.674692   1.069998   2.121823   2.121821   2.353777
                    6          7          8          9         10
     6  H    0.000000
     7  H    2.651099   0.000000
     8  H    2.275255   1.747301   0.000000
     9  H    3.523121   1.747300   1.747296   0.000000
    10  H    2.943925   2.978407   2.584850   2.320196   0.000000
 Stoichiometry    C3H6Br(1+)
 Framework group  C1[X(C3H6Br)]
 Deg. of freedom    24
 Full point group                 C1      NOp   1
 Largest Abelian subgroup         C1      NOp   1
 Largest concise Abelian subgroup C1      NOp   1
                         Standard orientation:                         
 ---------------------------------------------------------------------
 Center     Atomic      Atomic             Coordinates (Angstroms)
 Number     Number       Type             X           Y           Z
 ---------------------------------------------------------------------
      1         35           0       -0.878062   -0.178015   -0.026443
      2          6           0        0.948638    0.004046    0.552888
      3          6           0        0.399174    1.228190   -0.139689
      4          6           0        2.151709   -0.505214   -0.204330
      5          1           0        0.415531    2.152017    0.420089
      6          1           0        0.774731    1.334420   -1.149614
      7          1           0        1.826454   -1.096425   -1.034729
      8          1           0        2.726386    0.324185   -0.560332
      9          1           0        2.754808   -1.104270    0.445527
     10          1           0        1.237122    0.258478    1.551356
 ---------------------------------------------------------------------
 Rotational constants (GHZ):          11.8761156           3.2094809           2.8066518
 Standard basis: def2TZVP (5D, 7F)
 There are   199 symmetry adapted cartesian basis functions of A   symmetry.
 There are   177 symmetry adapted basis functions of A   symmetry.
   177 basis functions,   315 primitive gaussians,   199 cartesian basis functions
    29 alpha electrons       29 beta electrons
       nuclear repulsion energy       259.6281407264 Hartrees.
 NAtoms=   10 NActive=   10 NUniq=   10 SFac= 1.00D+00 NAtFMM=   60 NAOKFM=F Big=F
 Integral buffers will be    131072 words long.
 Raffenetti 2 integral format.
 Two-electron integral symmetry is turned on.
 Nuclear repulsion after empirical dispersion term =      259.6244718360 Hartrees.
 ------------------------------------------------------------------------------
 Polarizable Continuum Model (PCM)
 =================================
 Model                : C-PCM.
 Atomic radii         : UFF (Universal Force Field).
 Polarization charges : Total charges.
 Charge compensation  : None.
 Solution method      : On-the-fly selection.
 Cavity type          : Scaled VdW (van der Waals Surface) (Alpha=1.100).
 Cavity algorithm     : GePol (No added spheres)
                        Default sphere list used, NSphG=   10.
                        Lebedev-Laikov grids with approx.  5.0 points / Ang**2.
                        Smoothing algorithm: York/Karplus (Gamma=1.0000).
                        Polarization charges: spherical gaussians, with
                                              point-specific exponents (IZeta= 3).
                        Self-potential: point-specific (ISelfS= 7).
                        Self-field    : sphere-specific E.n sum rule (ISelfD= 2).
 1st derivatives      : Analytical E(r).r(x)/FMM algorithm (CHGder, D1EAlg=3).
                        Cavity 1st derivative terms included.
 Solvent              : DiChloroEthane, Eps=  10.125000 Eps(inf)=   2.087447
 ------------------------------------------------------------------------------
 Spheres list:
 ISph  on   Nord     Re0    Alpha      Xe            Ye            Ze
    1  Br      1    2.0945  1.100     -0.878062     -0.178015     -0.026443
    2   C      2    1.9255  1.100      0.948638      0.004046      0.552888
    3   C      3    1.9255  1.100      0.399174      1.228190     -0.139689
    4   C      4    1.9255  1.100      2.151709     -0.505214     -0.204330
    5   H      5    1.4430  1.100      0.415531      2.152017      0.420089
    6   H      6    1.4430  1.100      0.774731      1.334420     -1.149614
    7   H      7    1.4430  1.100      1.826454     -1.096425     -1.034729
    8   H      8    1.4430  1.100      2.726386      0.324185     -0.560332
    9   H      9    1.4430  1.100      2.754808     -1.104270      0.445527
   10   H     10    1.4430  1.100      1.237122      0.258478      1.551356
 ------------------------------------------------------------------------------
 One-electron integrals computed using PRISM.
   1 Symmetry operations used in ECPInt.
 ECPInt:  NShTT=    2701 NPrTT=    9330 LenC2=    2685 LenP2D=    7744.
 LDataN:  DoStor=T MaxTD1= 6 Len=  172
 NBasis=   177 RedAO= T EigKep=  2.57D-04  NBF=   177
 NBsUse=   177 1.00D-06 EigRej= -1.00D+00 NBFU=   177
 ExpMin= 9.52D-02 ExpMax= 5.65D+05 ExpMxC= 5.46D+03 IAcc=3 IRadAn=         5 AccDes= 0.00D+00
 Harris functional with IExCor= 4639 and IRadAn=       5 diagonalized for initial guess.
 HarFok:  IExCor= 4639 AccDes= 0.00D+00 IRadAn=         5 IDoV= 1 UseB2=F ITyADJ=14
 ICtDFT=  3500011 ScaDFX=  1.000000  1.000000  1.000000  1.000000
 FoFCou: FMM=F IPFlag=           0 FMFlag=      100000 FMFlg1=           0
         NFxFlg=           0 DoJE=T BraDBF=F KetDBF=T FulRan=T
         wScrn=  0.000000 ICntrl=       500 IOpCl=  0 I1Cent=   200000004 NGrid=           0
         NMat0=    1 NMatS0=      1 NMatT0=    0 NMatD0=    1 NMtDS0=    0 NMtDT0=    0
 Petite list used in FoFCou.
 Keep R1 ints in memory in canonical form, NReq=287941379.
 Requested convergence on RMS density matrix=1.00D-08 within 128 cycles.
 Requested convergence on MAX density matrix=1.00D-06.
 Requested convergence on             energy=1.00D-06.
 No special actions if energy rises.
 Inv3:  Mode=1 IEnd=     2846028.
 Iteration    1 A*A^-1 deviation from unit magnitude is 4.66D-15 for    964.
 Iteration    1 A*A^-1 deviation from orthogonality  is 2.19D-15 for    618     69.
 Iteration    1 A^-1*A deviation from unit magnitude is 4.88D-15 for    964.
 Iteration    1 A^-1*A deviation from orthogonality  is 1.05D-15 for    964    962.
 Error on total polarization charges =  0.00573
 SCF Done:  E(RwB97XD) =  -2691.86830179     A.U. after   13 cycles
            NFock= 13  Conv=0.28D-08     -V/T= 2.0015

 **********************************************************************

            Population analysis using the SCF Density.

 **********************************************************************

 Orbital symmetries:
       Occupied  (A) (A) (A) (A) (A) (A) (A) (A) (A) (A) (A) (A)
                 (A) (A) (A) (A) (A) (A) (A) (A) (A) (A) (A) (A)
                 (A) (A) (A) (A) (A)
       Virtual   (A) (A) (A) (A) (A) (A) (A) (A) (A) (A) (A) (A)
                 (A) (A) (A) (A) (A) (A) (A) (A) (A) (A) (A) (A)
                 (A) (A) (A) (A) (A) (A) (A) (A) (A) (A) (A) (A)
                 (A) (A) (A) (A) (A) (A) (A) (A) (A) (A) (A) (A)
                 (A) (A) (A) (A) (A) (A) (A) (A) (A) (A) (A) (A)
                 (A) (A) (A) (A) (A) (A) (A) (A) (A) (A) (A) (A)
                 (A) (A) (A) (A) (A) (A) (A) (A) (A) (A) (A) (A)
                 (A) (A) (A) (A) (A) (A) (A) (A) (A) (A) (A) (A)
                 (A) (A) (A) (A) (A) (A) (A) (A) (A) (A) (A) (A)
                 (A) (A) (A) (A) (A) (A) (A) (A) (A) (A) (A) (A)
                 (A) (A) (A) (A) (A) (A) (A) (A) (A) (A) (A) (A)
                 (A) (A) (A) (A) (A) (A) (A) (A) (A) (A) (A) (A)
                 (A) (A) (A) (A)
 The electronic state is 1-A.
 Alpha  occ. eigenvalues -- -483.26646 -62.81341 -56.60412 -56.60284 -56.59997
 Alpha  occ. eigenvalues --  -10.42132 -10.41219 -10.32104  -8.95403  -6.77393
 Alpha  occ. eigenvalues --   -6.76918  -6.76018  -2.87977  -2.87902  -2.87163
 Alpha  occ. eigenvalues --   -2.86781  -2.86636  -1.09419  -0.91658  -0.83750
 Alpha  occ. eigenvalues --   -0.75283  -0.66132  -0.61159  -0.56913  -0.55644
 Alpha  occ. eigenvalues --   -0.51552  -0.50261  -0.46841  -0.45911
 Alpha virt. eigenvalues --   -0.05268  -0.00195   0.10122   0.11807   0.12685
 Alpha virt. eigenvalues --    0.14864   0.16597   0.17706   0.19563   0.20502
 Alpha virt. eigenvalues --    0.22279   0.24419   0.24701   0.26014   0.27966
 Alpha virt. eigenvalues --    0.29069   0.31296   0.32218   0.32971   0.34374
 Alpha virt. eigenvalues --    0.37778   0.40111   0.42093   0.44157   0.44273
 Alpha virt. eigenvalues --    0.47280   0.48473   0.50032   0.51668   0.52761
 Alpha virt. eigenvalues --    0.54154   0.56915   0.57947   0.60091   0.65156
 Alpha virt. eigenvalues --    0.67118   0.70320   0.81627   0.85708   0.90123
 Alpha virt. eigenvalues --    0.91155   0.92988   0.95206   0.97232   1.02032
 Alpha virt. eigenvalues --    1.03526   1.05264   1.09202   1.11236   1.13565
 Alpha virt. eigenvalues --    1.17809   1.22861   1.32634   1.36819   1.38758
 Alpha virt. eigenvalues --    1.38925   1.44424   1.47384   1.47924   1.50455
 Alpha virt. eigenvalues --    1.52841   1.55117   1.55507   1.55897   1.59334
 Alpha virt. eigenvalues --    1.60536   1.60565   1.61816   1.62913   1.66071
 Alpha virt. eigenvalues --    1.66929   1.72748   1.75096   1.76154   1.80942
 Alpha virt. eigenvalues --    1.86030   1.91120   1.93074   1.97767   2.03988
 Alpha virt. eigenvalues --    2.06956   2.11006   2.14356   2.17419   2.19711
 Alpha virt. eigenvalues --    2.26963   2.32022   2.36212   2.40847   2.42818
 Alpha virt. eigenvalues --    2.46070   2.47986   2.52486   2.56337   2.59301
 Alpha virt. eigenvalues --    2.61068   2.64585   2.70688   2.78568   2.83781
 Alpha virt. eigenvalues --    2.84733   2.89848   2.92240   2.94691   3.02092
 Alpha virt. eigenvalues --    3.04075   3.07502   3.11597   3.15629   3.17724
 Alpha virt. eigenvalues --    3.22571   3.24673   3.29868   3.31763   3.34145
 Alpha virt. eigenvalues --    3.37138   3.41438   3.45325   3.49677   3.54296
 Alpha virt. eigenvalues --    3.60772   3.65932   3.67788   3.74079   3.80975
 Alpha virt. eigenvalues --    3.83857   3.92041   3.98576   4.03464   4.04356
 Alpha virt. eigenvalues --    4.06711   4.12416   4.15119   4.20363   4.26002
 Alpha virt. eigenvalues --    4.44902   4.50599   4.52786   4.54278   4.62451
 Alpha virt. eigenvalues --    4.64060   4.70098   4.83170   4.85530   7.69541
 Alpha virt. eigenvalues --   22.28358  22.38307  22.51059
          Condensed to atoms (all electrons):
               1          2          3          4          5          6
     1  Br  34.204890   0.207696   0.197975  -0.009177  -0.008324  -0.021022
     2  C    0.207696   4.913511   0.277358   0.310994  -0.013085  -0.036591
     3  C    0.197975   0.277358   4.954726  -0.019364   0.387489   0.419555
     4  C   -0.009177   0.310994  -0.019364   4.921557  -0.001718   0.002916
     5  H   -0.008324  -0.013085   0.387489  -0.001718   0.434245  -0.015834
     6  H   -0.021022  -0.036591   0.419555   0.002916  -0.015834   0.447933
     7  H   -0.004758  -0.008885  -0.005406   0.390065   0.000169  -0.000122
     8  H    0.005215  -0.031163  -0.012576   0.417960   0.000646  -0.002763
     9  H    0.000453  -0.036203   0.007977   0.413669  -0.000132   0.000410
    10  H   -0.018507   0.413505  -0.034080  -0.031111  -0.001606   0.001866
               7          8          9         10
     1  Br  -0.004758   0.005215   0.000453  -0.018507
     2  C   -0.008885  -0.031163  -0.036203   0.413505
     3  C   -0.005406  -0.012576   0.007977  -0.034080
     4  C    0.390065   0.417960   0.413669  -0.031111
     5  H    0.000169   0.000646  -0.000132  -0.001606
     6  H   -0.000122  -0.002763   0.000410   0.001866
     7  H    0.493536  -0.019273  -0.011910   0.004416
     8  H   -0.019273   0.488432  -0.020232   0.000141
     9  H   -0.011910  -0.020232   0.492417  -0.007376
    10  H    0.004416   0.000141  -0.007376   0.470243
 Mulliken charges:
               1
     1  Br   0.445560
     2  C    0.002864
     3  C   -0.173654
     4  C   -0.395791
     5  H    0.218150
     6  H    0.203652
     7  H    0.162168
     8  H    0.173614
     9  H    0.160927
    10  H    0.202509
 Sum of Mulliken charges =   1.00000
 Mulliken charges with hydrogens summed into heavy atoms:
               1
     1  Br   0.445560
     2  C    0.205373
     3  C    0.248149
     4  C    0.100919
 Electronic spatial extent (au):  <R**2>=            458.0624
 Charge=              1.0000 electrons
 Dipole moment (field-independent basis, Debye):
    X=              1.7743    Y=              1.6678    Z=              0.2910  Tot=              2.4524
 Quadrupole moment (field-independent basis, Debye-Ang):
   XX=            -25.5145   YY=            -29.1499   ZZ=            -32.1725
   XY=              1.9208   XZ=              1.1460   YZ=             -0.0005
 Traceless Quadrupole moment (field-independent basis, Debye-Ang):
   XX=              3.4311   YY=             -0.2043   ZZ=             -3.2269
   XY=              1.9208   XZ=              1.1460   YZ=             -0.0005
 Octapole moment (field-independent basis, Debye-Ang**2):
  XXX=            -18.4344  YYY=              3.4103  ZZZ=              0.6002  XYY=             -5.6689
  XXY=             -3.1905  XXZ=             -0.3476  XZZ=             -4.8001  YZZ=              0.2414
  YYZ=              0.3389  XYZ=             -0.3012
 Hexadecapole moment (field-independent basis, Debye-Ang**3):
 XXXX=           -319.1288 YYYY=           -102.0698 ZZZZ=            -60.1635 XXXY=              5.7889
 XXXZ=              5.0693 YYYX=             12.6869 YYYZ=              3.4724 ZZZX=              4.6610
 ZZZY=              0.3475 XXYY=            -73.5820 XXZZ=            -65.2132 YYZZ=            -27.9631
 XXYZ=             -2.8654 YYXZ=              0.0644 ZZXY=              3.4658
 N-N= 2.596244718360D+02 E-N=-6.928657759285D+03  KE= 2.687722598024D+03
 ******************************Gaussian NBO Version 3.1******************************
             N A T U R A L   A T O M I C   O R B I T A L   A N D
          N A T U R A L   B O N D   O R B I T A L   A N A L Y S I S
 ******************************Gaussian NBO Version 3.1******************************
       /RESON  / : Allow strongly delocalized NBO set

 Analyzing the SCF density

 Job title: bromonium                                                       

 Storage needed:     94857 in NPA,    125995 in NBO (4831837608 available)
 GSVD:  LWork=       10119 too small for GESVD, short by       31392 words or       31392 for optimal perf.


 NATURAL POPULATIONS:  Natural atomic orbital occupancies 
                                                          
   NAO  Atom  No  lang   Type(AO)    Occupancy      Energy
 ----------------------------------------------------------
     1   Br    1  S      Cor( 1S)     2.00000    -470.66173
     2   Br    1  S      Cor( 2S)     2.00000     -72.48132
     3   Br    1  S      Cor( 3S)     1.99972     -11.60267
     4   Br    1  S      Val( 4S)     1.83633      -1.11879
     5   Br    1  S      Ryd( 5S)     0.00274       0.81731
     6   Br    1  S      Ryd( 6S)     0.00001       7.35840
     7   Br    1  px     Cor( 2p)     2.00000     -56.44914
     8   Br    1  px     Cor( 3p)     1.99988      -6.91589
     9   Br    1  px     Val( 4p)     1.27153      -0.37443
    10   Br    1  px     Ryd( 5p)     0.00177       0.61438
    11   Br    1  px     Ryd( 6p)     0.00005       1.44103
    12   Br    1  py     Cor( 2p)     2.00000     -56.44850
    13   Br    1  py     Cor( 3p)     1.99994      -6.91504
    14   Br    1  py     Val( 4p)     1.39774      -0.39992
    15   Br    1  py     Ryd( 5p)     0.00098       0.60219
    16   Br    1  py     Ryd( 6p)     0.00002       1.38873
    17   Br    1  pz     Cor( 2p)     2.00000     -56.44644
    18   Br    1  pz     Cor( 3p)     1.99998      -6.90943
    19   Br    1  pz     Val( 4p)     1.82650      -0.45722
    20   Br    1  pz     Ryd( 5p)     0.00146       0.60501
    21   Br    1  pz     Ryd( 6p)     0.00003       1.41312
    22   Br    1  dxy    Cor( 3d)     1.99967      -2.87665
    23   Br    1  dxy    Ryd( 5d)     0.00172       1.93271
    24   Br    1  dxy    Ryd( 4d)     0.00025       1.44419
    25   Br    1  dxy    Ryd( 6d)     0.00002       4.21656
    26   Br    1  dxz    Cor( 3d)     1.99980      -2.87122
    27   Br    1  dxz    Ryd( 5d)     0.00159       1.42765
    28   Br    1  dxz    Ryd( 4d)     0.00015       1.36352
    29   Br    1  dxz    Ryd( 6d)     0.00003       4.11549
    30   Br    1  dyz    Cor( 3d)     1.99996      -2.86940
    31   Br    1  dyz    Ryd( 4d)     0.00126       0.93848
    32   Br    1  dyz    Ryd( 5d)     0.00016       1.19119
    33   Br    1  dyz    Ryd( 6d)     0.00001       3.96295
    34   Br    1  dx2y2  Cor( 3d)     1.99965      -2.87656
    35   Br    1  dx2y2  Ryd( 5d)     0.00198       1.85628
    36   Br    1  dx2y2  Ryd( 4d)     0.00015       1.44428
    37   Br    1  dx2y2  Ryd( 6d)     0.00002       4.20853
    38   Br    1  dz2    Cor( 3d)     1.99987      -2.86813
    39   Br    1  dz2    Ryd( 5d)     0.00104       1.40653
    40   Br    1  dz2    Ryd( 4d)     0.00026       1.32007
    41   Br    1  dz2    Ryd( 6d)     0.00002       4.07818
    42   Br    1  f(0)   Ryd( 4f)     0.00007       1.69869
    43   Br    1  f(C1)  Ryd( 4f)     0.00011       1.80950
    44   Br    1  f(S1)  Ryd( 4f)     0.00003       1.62296
    45   Br    1  f(C2)  Ryd( 4f)     0.00008       1.77597
    46   Br    1  f(S2)  Ryd( 4f)     0.00010       1.77010
    47   Br    1  f(C3)  Ryd( 4f)     0.00004       1.89721
    48   Br    1  f(S3)  Ryd( 4f)     0.00011       1.88083
 
    49    C    2  S      Cor( 1S)     1.99900     -10.29420
    50    C    2  S      Val( 2S)     1.08453      -0.43724
    51    C    2  S      Ryd( 3S)     0.00219       1.31461
    52    C    2  S      Ryd( 4S)     0.00039       1.86462
    53    C    2  S      Ryd( 5S)     0.00001      20.99970
    54    C    2  px     Val( 2p)     0.86051      -0.21572
    55    C    2  px     Ryd( 3p)     0.00292       1.19799
    56    C    2  px     Ryd( 4p)     0.00051       1.33218
    57    C    2  py     Val( 2p)     1.01489      -0.20676
    58    C    2  py     Ryd( 3p)     0.00124       1.03831
    59    C    2  py     Ryd( 4p)     0.00010       1.39211
    60    C    2  pz     Val( 2p)     1.20931      -0.22680
    61    C    2  pz     Ryd( 3p)     0.00221       1.09285
    62    C    2  pz     Ryd( 4p)     0.00033       1.56956
    63    C    2  dxy    Ryd( 3d)     0.00184       1.20785
    64    C    2  dxy    Ryd( 4d)     0.00022       3.32007
    65    C    2  dxz    Ryd( 3d)     0.00367       1.19618
    66    C    2  dxz    Ryd( 4d)     0.00026       3.40427
    67    C    2  dyz    Ryd( 3d)     0.00252       1.21185
    68    C    2  dyz    Ryd( 4d)     0.00019       3.33393
    69    C    2  dx2y2  Ryd( 3d)     0.00301       1.12868
    70    C    2  dx2y2  Ryd( 4d)     0.00038       3.32849
    71    C    2  dz2    Ryd( 3d)     0.00193       1.13398
    72    C    2  dz2    Ryd( 4d)     0.00049       3.33834
    73    C    2  f(0)   Ryd( 4f)     0.00015       3.48038
    74    C    2  f(C1)  Ryd( 4f)     0.00012       3.53452
    75    C    2  f(S1)  Ryd( 4f)     0.00004       3.52702
    76    C    2  f(C2)  Ryd( 4f)     0.00019       3.59740
    77    C    2  f(S2)  Ryd( 4f)     0.00009       3.54691
    78    C    2  f(C3)  Ryd( 4f)     0.00016       3.43378
    79    C    2  f(S3)  Ryd( 4f)     0.00007       3.47874
 
    80    C    3  S      Cor( 1S)     1.99917     -10.28523
    81    C    3  S      Val( 2S)     1.15520      -0.46770
    82    C    3  S      Ryd( 3S)     0.00131       1.06689
    83    C    3  S      Ryd( 4S)     0.00044       1.88972
    84    C    3  S      Ryd( 5S)     0.00000      21.28461
    85    C    3  px     Val( 2p)     0.87499      -0.22154
    86    C    3  px     Ryd( 3p)     0.00128       1.00432
    87    C    3  px     Ryd( 4p)     0.00022       1.02033
    88    C    3  py     Val( 2p)     1.08800      -0.23162
    89    C    3  py     Ryd( 3p)     0.00203       1.10673
    90    C    3  py     Ryd( 4p)     0.00054       1.48225
    91    C    3  pz     Val( 2p)     1.22860      -0.23039
    92    C    3  pz     Ryd( 3p)     0.00094       1.06983
    93    C    3  pz     Ryd( 4p)     0.00021       1.33160
    94    C    3  dxy    Ryd( 3d)     0.00374       1.11451
    95    C    3  dxy    Ryd( 4d)     0.00018       3.25062
    96    C    3  dxz    Ryd( 3d)     0.00120       1.08839
    97    C    3  dxz    Ryd( 4d)     0.00009       3.08725
    98    C    3  dyz    Ryd( 3d)     0.00448       1.25368
    99    C    3  dyz    Ryd( 4d)     0.00025       3.32713
   100    C    3  dx2y2  Ryd( 3d)     0.00278       1.14678
   101    C    3  dx2y2  Ryd( 4d)     0.00019       3.21728
   102    C    3  dz2    Ryd( 3d)     0.00363       1.12562
   103    C    3  dz2    Ryd( 4d)     0.00019       3.20714
   104    C    3  f(0)   Ryd( 4f)     0.00013       3.42165
   105    C    3  f(C1)  Ryd( 4f)     0.00011       3.42422
   106    C    3  f(S1)  Ryd( 4f)     0.00012       3.44470
   107    C    3  f(C2)  Ryd( 4f)     0.00017       3.49715
   108    C    3  f(S2)  Ryd( 4f)     0.00007       3.34424
   109    C    3  f(C3)  Ryd( 4f)     0.00024       3.32157
   110    C    3  f(S3)  Ryd( 4f)     0.00021       3.41259
 
   111    C    4  S      Cor( 1S)     1.99938     -10.16766
   112    C    4  S      Val( 2S)     1.10810      -0.35676
   113    C    4  S      Ryd( 3S)     0.00100       1.14534
   114    C    4  S      Ryd( 4S)     0.00015       2.81968
   115    C    4  S      Ryd( 5S)     0.00000      20.83744
   116    C    4  px     Val( 2p)     1.08636      -0.15602
   117    C    4  px     Ryd( 3p)     0.00149       0.90038
   118    C    4  px     Ryd( 4p)     0.00018       1.59451
   119    C    4  py     Val( 2p)     1.22534      -0.17180
   120    C    4  py     Ryd( 3p)     0.00091       0.94733
   121    C    4  py     Ryd( 4p)     0.00006       1.43340
   122    C    4  pz     Val( 2p)     1.19249      -0.16697
   123    C    4  pz     Ryd( 3p)     0.00114       0.93530
   124    C    4  pz     Ryd( 4p)     0.00005       1.53173
   125    C    4  dxy    Ryd( 3d)     0.00174       1.61651
   126    C    4  dxy    Ryd( 4d)     0.00013       3.10926
   127    C    4  dxz    Ryd( 3d)     0.00231       1.59804
   128    C    4  dxz    Ryd( 4d)     0.00007       3.07558
   129    C    4  dyz    Ryd( 3d)     0.00192       1.64859
   130    C    4  dyz    Ryd( 4d)     0.00003       3.05456
   131    C    4  dx2y2  Ryd( 3d)     0.00115       1.39267
   132    C    4  dx2y2  Ryd( 4d)     0.00018       2.86629
   133    C    4  dz2    Ryd( 3d)     0.00063       1.41477
   134    C    4  dz2    Ryd( 4d)     0.00008       2.83840
   135    C    4  f(0)   Ryd( 4f)     0.00003       3.47813
   136    C    4  f(C1)  Ryd( 4f)     0.00002       3.54828
   137    C    4  f(S1)  Ryd( 4f)     0.00009       3.58298
   138    C    4  f(C2)  Ryd( 4f)     0.00003       3.43203
   139    C    4  f(S2)  Ryd( 4f)     0.00018       3.81095
   140    C    4  f(C3)  Ryd( 4f)     0.00004       3.64008
   141    C    4  f(S3)  Ryd( 4f)     0.00004       3.44608
 
   142    H    5  S      Val( 1S)     0.71984      -0.00527
   143    H    5  S      Ryd( 3S)     0.00037       1.46512
   144    H    5  S      Ryd( 2S)     0.00010       0.98904
   145    H    5  px     Ryd( 2p)     0.00013       2.20688
   146    H    5  py     Ryd( 2p)     0.00032       2.95352
   147    H    5  pz     Ryd( 2p)     0.00021       2.45758
 
   148    H    6  S      Val( 1S)     0.74309      -0.01742
   149    H    6  S      Ryd( 2S)     0.00055       1.16438
   150    H    6  S      Ryd( 3S)     0.00010       1.37197
   151    H    6  px     Ryd( 2p)     0.00011       2.29499
   152    H    6  py     Ryd( 2p)     0.00006       2.40318
   153    H    6  pz     Ryd( 2p)     0.00030       2.94187
 
   154    H    7  S      Val( 1S)     0.75873       0.01867
   155    H    7  S      Ryd( 3S)     0.00051       1.30396
   156    H    7  S      Ryd( 2S)     0.00009       1.21794
   157    H    7  px     Ryd( 2p)     0.00014       2.40221
   158    H    7  py     Ryd( 2p)     0.00017       2.50953
   159    H    7  pz     Ryd( 2p)     0.00022       2.78446
 
   160    H    8  S      Val( 1S)     0.75507       0.01805
   161    H    8  S      Ryd( 2S)     0.00037       1.26392
   162    H    8  S      Ryd( 3S)     0.00011       1.28248
   163    H    8  px     Ryd( 2p)     0.00018       2.62273
   164    H    8  py     Ryd( 2p)     0.00016       2.71669
   165    H    8  pz     Ryd( 2p)     0.00013       2.36732
 
   166    H    9  S      Val( 1S)     0.75884       0.02778
   167    H    9  S      Ryd( 3S)     0.00024       1.47519
   168    H    9  S      Ryd( 2S)     0.00009       1.10059
   169    H    9  px     Ryd( 2p)     0.00015       2.63824
   170    H    9  py     Ryd( 2p)     0.00016       2.52236
   171    H    9  pz     Ryd( 2p)     0.00012       2.56314
 
   172    H   10  S      Val( 1S)     0.72153       0.00471
   173    H   10  S      Ryd( 2S)     0.00061       1.28798
   174    H   10  S      Ryd( 3S)     0.00012       1.30456
   175    H   10  px     Ryd( 2p)     0.00023       2.54214
   176    H   10  py     Ryd( 2p)     0.00021       2.42024
   177    H   10  pz     Ryd( 2p)     0.00036       3.03536

 WARNING:  1 low occupancy (<1.9990e) core orbital  found on  C    2

 WARNING:  Population inversion found on atom Br    1
           Population inversion found on atom  H    5
           Population inversion found on atom  H    7
           Population inversion found on atom  H    9


 Summary of Natural Population Analysis:                  
                                                          
                                       Natural Population 
                Natural  -----------------------------------------------
    Atom  No    Charge         Core      Valence    Rydberg      Total
 -----------------------------------------------------------------------
     Br    1    0.65317     27.99846     6.33211    0.01626    34.34683
      C    2   -0.19342      1.99900     4.16923    0.02519     6.19342
      C    3   -0.37072      1.99917     4.34678    0.02477     6.37072
      C    4   -0.62531      1.99938     4.61228    0.01365     6.62531
      H    5    0.27903      0.00000     0.71984    0.00113     0.72097
      H    6    0.25578      0.00000     0.74309    0.00113     0.74422
      H    7    0.24014      0.00000     0.75873    0.00113     0.75986
      H    8    0.24397      0.00000     0.75507    0.00096     0.75603
      H    9    0.24040      0.00000     0.75884    0.00076     0.75960
      H   10    0.27695      0.00000     0.72153    0.00152     0.72305
 =======================================================================
   * Total *    1.00000     33.99601    23.91750    0.08649    58.00000

                                 Natural Population      
 --------------------------------------------------------
   Core                      33.99601 ( 99.9883% of  34)
   Valence                   23.91750 ( 99.6562% of  24)
   Natural Minimal Basis     57.91351 ( 99.8509% of  58)
   Natural Rydberg Basis      0.08649 (  0.1491% of  58)
 --------------------------------------------------------

    Atom  No          Natural Electron Configuration
 ----------------------------------------------------------------------------
     Br    1      [core]4S( 1.84)4p( 4.50)5d( 0.01)
      C    2      [core]2S( 1.08)2p( 3.08)3p( 0.01)3d( 0.01)
      C    3      [core]2S( 1.16)2p( 3.19)3d( 0.02)
      C    4      [core]2S( 1.11)2p( 3.50)3d( 0.01)
      H    5            1S( 0.72)
      H    6            1S( 0.74)
      H    7            1S( 0.76)
      H    8            1S( 0.76)
      H    9            1S( 0.76)
      H   10            1S( 0.72)


 NATURAL BOND ORBITAL ANALYSIS:

                       Occupancies       Lewis Structure    Low   High
           Occ.    -------------------  -----------------   occ   occ
  Cycle   Thresh.   Lewis   Non-Lewis     CR  BD  3C  LP    (L)   (NL)   Dev
 =============================================================================
   1(1)    1.90    57.77774   0.22226     17  10   0   2     0      0    0.05
 -----------------------------------------------------------------------------

 Structure accepted: No low occupancy Lewis orbitals

 WARNING:  1 low occupancy (<1.9990e) core orbital  found on  C    2

 --------------------------------------------------------
   Core                     33.99600 ( 99.988% of  34)
   Valence Lewis            23.78174 ( 99.091% of  24)
  ==================       ============================
   Total Lewis              57.77774 ( 99.617% of  58)
  -----------------------------------------------------
   Valence non-Lewis         0.18511 (  0.319% of  58)
   Rydberg non-Lewis         0.03715 (  0.064% of  58)
  ==================       ============================
   Total non-Lewis           0.22226 (  0.383% of  58)
 --------------------------------------------------------


       (Occupancy)   Bond orbital/ Coefficients/ Hybrids
 ---------------------------------------------------------------------------------
     1. (1.96906) BD ( 1)Br   1 - C   2  
                ( 59.21%)   0.7695*Br   1 s(  7.80%)p11.80( 92.06%)d 0.02(  0.13%)
                                                  f 0.00(  0.01%)
                                           -0.0000 -0.0000  0.0000  0.2788  0.0170
                                           -0.0004 -0.0000 -0.0001  0.8156  0.0136
                                           -0.0016 -0.0000  0.0000 -0.2868 -0.0050
                                            0.0005 -0.0000 -0.0000  0.4158  0.0064
                                           -0.0004 -0.0000 -0.0073  0.0040 -0.0006
                                            0.0000  0.0215  0.0035  0.0003 -0.0000
                                           -0.0065  0.0045  0.0002 -0.0000  0.0215
                                            0.0097 -0.0002 -0.0000 -0.0127 -0.0010
                                            0.0008 -0.0042 -0.0041 -0.0021  0.0033
                                           -0.0025 -0.0000  0.0018
                ( 40.79%)   0.6387* C   2 s( 15.93%)p 5.24( 83.41%)d 0.04(  0.62%)
                                                  f 0.00(  0.03%)
                                           -0.0000  0.3985  0.0195 -0.0126  0.0010
                                           -0.7783  0.0286  0.0146 -0.4697 -0.0015
                                           -0.0040 -0.0795  0.0209  0.0052  0.0113
                                            0.0059  0.0456 -0.0074 -0.0094  0.0049
                                            0.0505 -0.0045 -0.0349  0.0043  0.0086
                                            0.0034  0.0005 -0.0096 -0.0032 -0.0115
                                           -0.0028
     2. (1.97249) BD ( 1)Br   1 - C   3  
                ( 59.71%)   0.7727*Br   1 s(  8.26%)p11.09( 91.60%)d 0.02(  0.13%)
                                                  f 0.00(  0.01%)
                                           -0.0000 -0.0000 -0.0000  0.2867  0.0210
                                           -0.0005 -0.0000  0.0000  0.3169  0.0050
                                            0.0002  0.0000 -0.0000  0.8786  0.0175
                                           -0.0006 -0.0000  0.0000 -0.2082 -0.0046
                                           -0.0004 -0.0000  0.0223  0.0118  0.0001
                                           -0.0000 -0.0001 -0.0023 -0.0008 -0.0000
                                           -0.0089  0.0020 -0.0001 -0.0000 -0.0157
                                            0.0006 -0.0006 -0.0000 -0.0181 -0.0033
                                            0.0005  0.0003 -0.0046 -0.0041  0.0048
                                            0.0010 -0.0013  0.0017
                ( 40.29%)   0.6348* C   3 s( 13.68%)p 6.26( 85.58%)d 0.05(  0.71%)
                                                  f 0.00(  0.04%)
                                            0.0000  0.3693  0.0133 -0.0143  0.0009
                                           -0.8502  0.0033  0.0092 -0.3569  0.0246
                                            0.0131 -0.0683 -0.0021 -0.0016  0.0650
                                           -0.0030  0.0001 -0.0001 -0.0248  0.0077
                                           -0.0045  0.0053 -0.0459  0.0049 -0.0026
                                            0.0057  0.0079 -0.0015  0.0025  0.0140
                                           -0.0077
     3. (1.98888) BD ( 1) C   2 - C   3  
                ( 49.71%)   0.7051* C   2 s( 20.13%)p 3.95( 79.48%)d 0.02(  0.37%)
                                                  f 0.00(  0.02%)
                                            0.0001  0.4484 -0.0141 -0.0035  0.0008
                                           -0.2009 -0.0047  0.0109  0.7819  0.0107
                                            0.0029 -0.3778  0.0075  0.0022 -0.0349
                                            0.0029  0.0323 -0.0037 -0.0320 -0.0044
                                            0.0040 -0.0127 -0.0142  0.0008  0.0075
                                            0.0001  0.0020 -0.0037  0.0083 -0.0009
                                            0.0036
                ( 50.29%)   0.7091* C   3 s( 25.26%)p 2.94( 74.27%)d 0.02(  0.45%)
                                                  f 0.00(  0.02%)
                                            0.0002  0.5022 -0.0173 -0.0055  0.0003
                                            0.4451  0.0033  0.0037 -0.6120  0.0042
                                            0.0101  0.4121  0.0118  0.0030 -0.0006
                                           -0.0105  0.0045  0.0039 -0.0414 -0.0019
                                           -0.0442  0.0042 -0.0260  0.0027 -0.0072
                                            0.0020  0.0065 -0.0089  0.0008  0.0017
                                            0.0036
     4. (1.98926) BD ( 1) C   2 - C   4  
                ( 53.36%)   0.7305* C   2 s( 33.57%)p 1.98( 66.33%)d 0.00(  0.09%)
                                                  f 0.00(  0.01%)
                                            0.0000  0.5793 -0.0140  0.0006 -0.0004
                                            0.5744  0.0165 -0.0066 -0.3892 -0.0115
                                           -0.0026 -0.4260  0.0070  0.0008 -0.0016
                                           -0.0069 -0.0164 -0.0089  0.0109  0.0031
                                            0.0115  0.0043  0.0132 -0.0041  0.0028
                                            0.0000  0.0006 -0.0033  0.0021  0.0020
                                           -0.0052
                ( 46.64%)   0.6829* C   4 s( 25.81%)p 2.87( 74.01%)d 0.01(  0.16%)
                                                  f 0.00(  0.01%)
                                            0.0002  0.5078  0.0171  0.0002  0.0001
                                           -0.7018 -0.0102  0.0107  0.2558 -0.0009
                                           -0.0055  0.4264  0.0074 -0.0009 -0.0208
                                           -0.0004 -0.0264 -0.0034  0.0109  0.0007
                                            0.0187  0.0027 -0.0050 -0.0016 -0.0035
                                           -0.0010 -0.0032  0.0035 -0.0073 -0.0018
                                            0.0023
     5. (1.98190) BD ( 1) C   2 - H  10  
                ( 64.26%)   0.8016* C   2 s( 30.20%)p 2.31( 69.62%)d 0.01(  0.17%)
                                                  f 0.00(  0.01%)
                                           -0.0001  0.5494  0.0129  0.0080 -0.0005
                                            0.1286  0.0028 -0.0015  0.1144 -0.0050
                                            0.0014  0.8163 -0.0053  0.0121  0.0116
                                            0.0025  0.0094  0.0060  0.0278  0.0001
                                            0.0001 -0.0018  0.0218  0.0119  0.0033
                                            0.0080  0.0043  0.0040 -0.0014 -0.0006
                                            0.0016
                ( 35.74%)   0.5978* H  10 s( 99.95%)p 0.00(  0.05%)
                                            0.9997  0.0024 -0.0002 -0.0057 -0.0067
                                           -0.0213
     6. (1.99002) BD ( 1) C   3 - H   5  
                ( 64.32%)   0.8020* C   3 s( 32.14%)p 2.11( 67.71%)d 0.00(  0.13%)
                                                  f 0.00(  0.02%)
                                           -0.0001  0.5668 -0.0018  0.0082 -0.0004
                                           -0.0812  0.0041 -0.0025  0.6953  0.0036
                                            0.0054  0.4324 -0.0091  0.0053  0.0045
                                           -0.0005 -0.0067  0.0020  0.0313  0.0083
                                           -0.0071 -0.0090  0.0083 -0.0028 -0.0049
                                            0.0012 -0.0001 -0.0078  0.0028 -0.0015
                                           -0.0094
                ( 35.68%)   0.5973* H   5 s( 99.95%)p 0.00(  0.05%)
                                            0.9998  0.0015 -0.0002  0.0002 -0.0188
                                           -0.0114
     7. (1.98963) BD ( 1) C   3 - H   6  
                ( 63.12%)   0.7945* C   3 s( 28.73%)p 2.47( 71.07%)d 0.01(  0.19%)
                                                  f 0.00(  0.01%)
                                            0.0000 -0.5360 -0.0092 -0.0022  0.0002
                                           -0.2583 -0.0003  0.0009 -0.0878 -0.0190
                                           -0.0002  0.7974 -0.0002  0.0077  0.0021
                                           -0.0002  0.0176  0.0069 -0.0190  0.0074
                                           -0.0005 -0.0036 -0.0321 -0.0077  0.0038
                                           -0.0067 -0.0039 -0.0004  0.0044  0.0012
                                            0.0017
                ( 36.88%)   0.6073* H   6 s( 99.96%)p 0.00(  0.04%)
                                           -0.9998 -0.0024  0.0000  0.0052 -0.0009
                                           -0.0185
     8. (1.98495) BD ( 1) C   4 - H   7  
                ( 61.91%)   0.7868* C   4 s( 23.76%)p 3.20( 76.09%)d 0.01(  0.14%)
                                                  f 0.00(  0.01%)
                                           -0.0001 -0.4874  0.0082  0.0000  0.0000
                                            0.2411 -0.0133  0.0003  0.4814  0.0046
                                            0.0012  0.6862  0.0003  0.0030 -0.0154
                                            0.0001 -0.0225  0.0004 -0.0230 -0.0027
                                            0.0007  0.0033 -0.0124 -0.0017 -0.0003
                                            0.0020  0.0048 -0.0019  0.0061  0.0016
                                            0.0001
                ( 38.09%)   0.6172* H   7 s( 99.97%)p 0.00(  0.03%)
                                           -0.9998 -0.0011 -0.0001 -0.0027 -0.0110
                                           -0.0149
     9. (1.97201) BD ( 1) C   4 - H   8  
                ( 61.86%)   0.7865* C   4 s( 25.87%)p 2.86( 73.98%)d 0.01(  0.14%)
                                                  f 0.00(  0.01%)
                                           -0.0004  0.5086 -0.0055 -0.0008 -0.0000
                                            0.4484  0.0082  0.0022  0.6809 -0.0085
                                            0.0013 -0.2739 -0.0019 -0.0007  0.0238
                                            0.0024 -0.0051 -0.0031 -0.0148 -0.0015
                                           -0.0201  0.0014 -0.0147 -0.0001  0.0014
                                           -0.0005 -0.0037  0.0012 -0.0064 -0.0037
                                            0.0001
                ( 38.14%)   0.6175* H   8 s( 99.97%)p 0.00(  0.03%)
                                            0.9998  0.0011  0.0002 -0.0125 -0.0121
                                            0.0067
    10. (1.98620) BD ( 1) C   4 - H   9  
                ( 61.95%)   0.7871* C   4 s( 24.54%)p 3.07( 75.29%)d 0.01(  0.16%)
                                                  f 0.00(  0.01%)
                                           -0.0002  0.4954 -0.0000  0.0012 -0.0000
                                            0.4954 -0.0010  0.0008 -0.4872  0.0032
                                           -0.0019  0.5196 -0.0089  0.0017 -0.0127
                                           -0.0028  0.0256  0.0004 -0.0259  0.0005
                                           -0.0066  0.0022  0.0092 -0.0007  0.0002
                                            0.0004 -0.0046  0.0008 -0.0055 -0.0021
                                           -0.0021
                ( 38.05%)   0.6169* H   9 s( 99.97%)p 0.00(  0.03%)
                                            0.9998  0.0006  0.0001 -0.0113  0.0110
                                           -0.0080
    11. (2.00000) CR ( 1)Br   1           s(100.00%)
                                            1.0000 -0.0000 -0.0000  0.0000  0.0000
                                           -0.0000 -0.0000  0.0000  0.0000  0.0000
                                            0.0000 -0.0000  0.0000  0.0000  0.0000
                                            0.0000 -0.0000  0.0000 -0.0000  0.0000
                                           -0.0000 -0.0000  0.0000  0.0000 -0.0000
                                            0.0000  0.0000 -0.0000 -0.0000  0.0000
                                           -0.0000  0.0000  0.0000 -0.0000 -0.0000
                                            0.0000 -0.0000  0.0000 -0.0000 -0.0000
                                            0.0000 -0.0000 -0.0000 -0.0000  0.0000
                                           -0.0000 -0.0000  0.0000
    12. (2.00000) CR ( 2)Br   1           s(100.00%)
                                           -0.0000  1.0000  0.0000  0.0000  0.0000
                                           -0.0000 -0.0000 -0.0000  0.0000  0.0000
                                           -0.0000 -0.0000 -0.0000  0.0000  0.0000
                                           -0.0000 -0.0000 -0.0000  0.0000  0.0000
                                           -0.0000 -0.0000  0.0000  0.0000 -0.0000
                                            0.0000  0.0000  0.0000 -0.0000 -0.0000
                                           -0.0000  0.0000  0.0000 -0.0000  0.0000
                                            0.0000 -0.0000 -0.0000 -0.0000 -0.0000
                                            0.0000 -0.0000 -0.0000 -0.0000  0.0000
                                           -0.0000 -0.0000  0.0000
    13. (1.99972) CR ( 3)Br   1           s(100.00%)
                                           -0.0000  0.0000  1.0000  0.0002 -0.0000
                                            0.0000 -0.0000  0.0000 -0.0001 -0.0000
                                            0.0000 -0.0000  0.0000 -0.0000  0.0000
                                            0.0000 -0.0000  0.0000 -0.0001  0.0000
                                            0.0000 -0.0000 -0.0000 -0.0000  0.0000
                                            0.0000 -0.0000 -0.0000  0.0000  0.0000
                                           -0.0000 -0.0000  0.0000 -0.0000 -0.0000
                                           -0.0000 -0.0000  0.0000  0.0000  0.0000
                                            0.0000  0.0000  0.0000  0.0000 -0.0000
                                           -0.0000  0.0000 -0.0000
    14. (2.00000) CR ( 4)Br   1           s(  0.00%)p 1.00(100.00%)
                                           -0.0000 -0.0000 -0.0000  0.0000  0.0000
                                            0.0000  1.0000  0.0000 -0.0000  0.0000
                                            0.0000  0.0000 -0.0000  0.0000 -0.0000
                                            0.0000  0.0000  0.0000  0.0000 -0.0000
                                            0.0000 -0.0000  0.0000  0.0000 -0.0000
                                           -0.0000  0.0000  0.0000 -0.0000 -0.0000
                                            0.0000  0.0000 -0.0000  0.0000 -0.0000
                                           -0.0000  0.0000 -0.0000  0.0000  0.0000
                                           -0.0000 -0.0000  0.0000 -0.0000  0.0000
                                            0.0000 -0.0000 -0.0000
    15. (1.99988) CR ( 5)Br   1           s(  0.00%)p 1.00(100.00%)
                                           -0.0000  0.0000 -0.0000  0.0001 -0.0000
                                            0.0000 -0.0000 -1.0000 -0.0001 -0.0000
                                            0.0000 -0.0000  0.0000 -0.0000  0.0000
                                            0.0000 -0.0000  0.0000 -0.0001  0.0000
                                           -0.0000 -0.0000 -0.0000 -0.0000  0.0000
                                            0.0000 -0.0000 -0.0000  0.0000  0.0000
                                            0.0000 -0.0000  0.0000 -0.0000 -0.0000
                                           -0.0000 -0.0000  0.0000  0.0000  0.0000
                                           -0.0000  0.0000  0.0000  0.0000 -0.0000
                                           -0.0000  0.0000 -0.0000
    16. (2.00000) CR ( 6)Br   1           s(  0.00%)p 1.00(100.00%)
                                           -0.0000 -0.0000 -0.0000  0.0000  0.0000
                                           -0.0000  0.0000  0.0000  0.0000 -0.0000
                                            0.0000  1.0000  0.0000 -0.0000  0.0000
                                            0.0000 -0.0000 -0.0000 -0.0000  0.0000
                                           -0.0000 -0.0000 -0.0000 -0.0000  0.0000
                                            0.0000  0.0000 -0.0000  0.0000  0.0000
                                           -0.0000 -0.0000  0.0000 -0.0000  0.0000
                                            0.0000 -0.0000  0.0000 -0.0000 -0.0000
                                            0.0000  0.0000 -0.0000  0.0000 -0.0000
                                           -0.0000  0.0000  0.0000
    17. (1.99994) CR ( 7)Br   1           s(  0.00%)p 1.00(100.00%)
                                            0.0000 -0.0000  0.0000 -0.0000  0.0000
                                           -0.0000 -0.0000 -0.0000  0.0000  0.0000
                                           -0.0000  0.0000  1.0000  0.0000  0.0000
                                           -0.0000  0.0000  0.0000  0.0000 -0.0000
                                            0.0000 -0.0000  0.0000  0.0000 -0.0000
                                           -0.0000  0.0000  0.0000 -0.0000 -0.0000
                                            0.0000  0.0000 -0.0000  0.0000 -0.0000
                                           -0.0000  0.0000 -0.0000 -0.0000 -0.0000
                                           -0.0000 -0.0000  0.0000 -0.0000  0.0000
                                            0.0000 -0.0000  0.0000
    18. (2.00000) CR ( 8)Br   1           s(  0.00%)p 1.00(100.00%)
                                           -0.0000 -0.0000 -0.0000  0.0000 -0.0000
                                           -0.0000  0.0000  0.0000  0.0000 -0.0000
                                            0.0000 -0.0000  0.0000 -0.0000  0.0000
                                           -0.0000  1.0000 -0.0000 -0.0000  0.0000
                                           -0.0000  0.0000 -0.0000 -0.0000  0.0000
                                            0.0000 -0.0000 -0.0000  0.0000  0.0000
                                           -0.0000 -0.0000  0.0000 -0.0000  0.0000
                                            0.0000 -0.0000  0.0000 -0.0000 -0.0000
                                            0.0000  0.0000 -0.0000  0.0000 -0.0000
                                           -0.0000  0.0000  0.0000
    19. (1.99998) CR ( 9)Br   1           s(  0.00%)p 1.00(100.00%)
                                            0.0000 -0.0000  0.0000 -0.0000  0.0000
                                           -0.0000  0.0000 -0.0000  0.0001 -0.0000
                                           -0.0000 -0.0000  0.0000 -0.0000  0.0000
                                           -0.0000 -0.0000  1.0000 -0.0001  0.0000
                                           -0.0000  0.0000 -0.0000 -0.0000  0.0000
                                            0.0000 -0.0000 -0.0000  0.0000  0.0000
                                           -0.0000 -0.0000  0.0000 -0.0000  0.0000
                                            0.0000 -0.0000  0.0000 -0.0000 -0.0000
                                            0.0000  0.0000 -0.0000  0.0000 -0.0000
                                           -0.0000  0.0000  0.0000
    20. (1.99966) CR (10)Br   1           s(  0.00%)p 0.00(  0.00%)d 1.00(100.00%)
                                           -0.0000 -0.0000 -0.0000  0.0000  0.0000
                                           -0.0000 -0.0000  0.0000  0.0000  0.0000
                                            0.0000 -0.0000 -0.0000  0.0000  0.0000
                                            0.0000  0.0000  0.0000  0.0000 -0.0000
                                            0.0000  1.0000  0.0000  0.0000 -0.0000
                                           -0.0000  0.0000  0.0000 -0.0000 -0.0000
                                           -0.0000  0.0000 -0.0000  0.0000 -0.0000
                                            0.0000  0.0000 -0.0000 -0.0000 -0.0000
                                            0.0000 -0.0000 -0.0000 -0.0000  0.0000
                                            0.0000 -0.0000  0.0000
    21. (1.99980) CR (11)Br   1           s(  0.00%)p 0.00(  0.00%)d 1.00(100.00%)
                                            0.0000  0.0000  0.0000  0.0000  0.0000
                                            0.0000 -0.0000 -0.0000 -0.0001  0.0000
                                           -0.0000  0.0000 -0.0000  0.0001 -0.0000
                                            0.0000  0.0000  0.0000  0.0003 -0.0000
                                            0.0000 -0.0000  0.0000  0.0000 -0.0000
                                            1.0000  0.0000  0.0000 -0.0000 -0.0000
                                            0.0000  0.0000 -0.0000  0.0000 -0.0000
                                           -0.0000  0.0000 -0.0000  0.0000  0.0000
                                           -0.0000 -0.0000  0.0000 -0.0000  0.0000
                                            0.0000 -0.0000 -0.0000
    22. (1.99996) CR (12)Br   1           s(  0.00%)p 0.00(  0.00%)d 1.00(100.00%)
                                            0.0000 -0.0000  0.0000  0.0000  0.0000
                                           -0.0000 -0.0000 -0.0000 -0.0001  0.0000
                                           -0.0000  0.0000 -0.0000  0.0001 -0.0000
                                            0.0000  0.0000  0.0000  0.0002 -0.0000
                                            0.0000 -0.0000  0.0000  0.0000 -0.0000
                                           -0.0000  0.0000  0.0000 -0.0000  1.0000
                                            0.0000  0.0000 -0.0000  0.0000 -0.0000
                                           -0.0000  0.0000 -0.0000  0.0000  0.0000
                                           -0.0000 -0.0000  0.0000 -0.0000  0.0000
                                            0.0000 -0.0000 -0.0000
    23. (1.99965) CR (13)Br   1           s(  0.00%)p 0.00(  0.00%)d 1.00(100.00%)
                                           -0.0000 -0.0000 -0.0000  0.0001  0.0000
                                           -0.0000  0.0000  0.0000  0.0001 -0.0000
                                            0.0000 -0.0000  0.0000 -0.0001  0.0000
                                           -0.0000 -0.0000 -0.0000 -0.0001  0.0000
                                           -0.0000  0.0000 -0.0000  0.0000  0.0000
                                            0.0000 -0.0000 -0.0000  0.0000  0.0000
                                           -0.0000 -0.0000  0.0000  1.0000  0.0000
                                            0.0000 -0.0000  0.0000 -0.0000 -0.0000
                                            0.0000  0.0000 -0.0000  0.0000 -0.0000
                                           -0.0000  0.0000  0.0000
    24. (1.99987) CR (14)Br   1           s(  0.00%)p 0.00(  0.00%)d 1.00(100.00%)
                                            0.0000 -0.0000  0.0000 -0.0000  0.0000
                                           -0.0000 -0.0000 -0.0000 -0.0000  0.0000
                                           -0.0000  0.0000 -0.0000  0.0001 -0.0000
                                            0.0000  0.0000  0.0000  0.0001 -0.0000
                                            0.0000 -0.0000  0.0000  0.0000 -0.0000
                                           -0.0000  0.0000  0.0000 -0.0000 -0.0000
                                            0.0000  0.0000 -0.0000  0.0000 -0.0000
                                           -0.0000  0.0000  1.0000  0.0000  0.0000
                                           -0.0000 -0.0000  0.0000 -0.0000  0.0000
                                            0.0000 -0.0000 -0.0000
    25. (1.99900) CR ( 1) C   2           s(100.00%)p 0.00(  0.00%)
                                            1.0000 -0.0000  0.0000  0.0000 -0.0000
                                            0.0000  0.0000 -0.0000 -0.0001 -0.0000
                                           -0.0000  0.0001 -0.0000  0.0000  0.0000
                                            0.0000 -0.0000  0.0000  0.0000  0.0000
                                           -0.0000  0.0000  0.0000  0.0000 -0.0000
                                            0.0000  0.0000  0.0000 -0.0000 -0.0000
                                           -0.0000
    26. (1.99917) CR ( 1) C   3           s(100.00%)p 0.00(  0.00%)
                                            1.0000 -0.0000  0.0000  0.0000 -0.0000
                                           -0.0001 -0.0000 -0.0000  0.0002 -0.0000
                                           -0.0000 -0.0001 -0.0000 -0.0000 -0.0000
                                            0.0000 -0.0000 -0.0000  0.0000  0.0000
                                            0.0000 -0.0000  0.0000 -0.0000  0.0000
                                           -0.0000 -0.0000  0.0000 -0.0000 -0.0000
                                           -0.0000
    27. (1.99938) CR ( 1) C   4           s(100.00%)p 0.00(  0.00%)
                                            1.0000  0.0001 -0.0000 -0.0000 -0.0000
                                            0.0004  0.0000 -0.0000  0.0002 -0.0000
                                            0.0000  0.0000 -0.0000  0.0000  0.0000
                                            0.0000  0.0000 -0.0000 -0.0000 -0.0000
                                           -0.0000  0.0000 -0.0000 -0.0000  0.0000
                                            0.0000 -0.0000 -0.0000 -0.0000 -0.0000
                                           -0.0000
    28. (1.99666) LP ( 1)Br   1           s( 83.92%)p 0.19( 16.07%)d 0.00(  0.01%)
                                                  f 0.00(  0.00%)
                                           -0.0000  0.0000 -0.0002  0.9161 -0.0064
                                            0.0002 -0.0000  0.0001 -0.3580 -0.0065
                                            0.0027 -0.0000  0.0000 -0.1772 -0.0035
                                            0.0012 -0.0000  0.0000 -0.0334 -0.0014
                                            0.0004 -0.0000 -0.0037 -0.0026  0.0000
                                           -0.0000 -0.0018  0.0005 -0.0000 -0.0000
                                            0.0004 -0.0015  0.0001 -0.0000 -0.0022
                                           -0.0023  0.0002  0.0000  0.0036  0.0005
                                           -0.0001  0.0005  0.0014  0.0007 -0.0008
                                           -0.0000 -0.0001 -0.0009
    29. (1.96068) LP ( 2)Br   1           s(  0.08%)p99.99( 99.89%)d 0.24(  0.02%)
                                                  f 0.07(  0.01%)
                                           -0.0000 -0.0000 -0.0000  0.0291 -0.0014
                                           -0.0000  0.0000  0.0000  0.3229 -0.0094
                                            0.0008 -0.0000  0.0000 -0.3354  0.0077
                                           -0.0005 -0.0000 -0.0001 -0.8841  0.0205
                                           -0.0020  0.0000 -0.0025 -0.0002  0.0005
                                            0.0003 -0.0092 -0.0031  0.0031  0.0002
                                           -0.0052 -0.0023  0.0019 -0.0002  0.0060
                                            0.0017 -0.0021  0.0001 -0.0026 -0.0010
                                            0.0011  0.0038 -0.0044  0.0018 -0.0010
                                           -0.0041  0.0022  0.0005
    30. (0.00525) RY*( 1)Br   1           s( 32.46%)p 0.85( 27.49%)d 1.15( 37.29%)
                                                  f 0.09(  2.77%)
                                            0.0000  0.0000  0.0000 -0.0015  0.5695
                                            0.0158  0.0000 -0.0000 -0.0218  0.4713
                                            0.0652  0.0000 -0.0000 -0.0141  0.2144
                                            0.0336 -0.0000  0.0000 -0.0048  0.0267
                                           -0.0046 -0.0000  0.3436  0.0221  0.0582
                                            0.0000 -0.1211  0.1025  0.0277 -0.0000
                                            0.2759 -0.0955 -0.0133 -0.0000  0.3431
                                            0.0007  0.0208 -0.0000 -0.0443 -0.1322
                                           -0.0449 -0.0050 -0.0253  0.0148 -0.0698
                                            0.0694  0.0447  0.1231
    31. (0.00220) RY*( 2)Br   1           s(  0.01%)p99.99( 29.56%)d99.99( 69.08%)
                                                  f89.60(  1.34%)
                                           -0.0000 -0.0000  0.0000  0.0001 -0.0057
                                            0.0108  0.0000 -0.0000 -0.0011 -0.1603
                                            0.0072 -0.0000 -0.0000 -0.0012  0.2124
                                            0.0029 -0.0000  0.0000  0.0025  0.4740
                                            0.0065 -0.0000  0.1685 -0.0165 -0.0073
                                            0.0000  0.5763 -0.0621 -0.0258 -0.0000
                                            0.4587 -0.0805 -0.0198 -0.0000 -0.2834
                                            0.0430  0.0238 -0.0000  0.1560 -0.0294
                                           -0.0152 -0.0467  0.0268  0.0019  0.0257
                                            0.0883 -0.0420  0.0175
    32. (0.00122) RY*( 3)Br   1           s(  0.27%)p 6.86(  1.84%)d99.99( 94.36%)
                                                  f13.10(  3.52%)
                                            0.0000  0.0000 -0.0000 -0.0010  0.0513
                                           -0.0077 -0.0000 -0.0000 -0.0055  0.0571
                                            0.0266  0.0000  0.0000  0.0029 -0.1071
                                           -0.0504  0.0000 -0.0000 -0.0038  0.0198
                                            0.0013 -0.0000 -0.4295  0.2052 -0.0533
                                            0.0000 -0.0717  0.0703  0.0126  0.0000
                                            0.4419 -0.1907  0.0091 -0.0000 -0.0795
                                            0.0629  0.0194 -0.0000 -0.5838  0.3466
                                           -0.0254 -0.0277 -0.1159 -0.0430 -0.0883
                                            0.0634 -0.0359 -0.0781
    33. (0.00042) RY*( 4)Br   1           s(  6.14%)p 3.33( 20.45%)d11.37( 69.78%)
                                                  f 0.59(  3.63%)
                                            0.0000  0.0000 -0.0000 -0.0027  0.2360
                                           -0.0756  0.0000  0.0000  0.0047 -0.0630
                                            0.0054  0.0000 -0.0000 -0.0363  0.2551
                                            0.0053 -0.0000  0.0000  0.0086 -0.3372
                                            0.1422 -0.0000  0.2989  0.0004  0.0092
                                           -0.0000 -0.1779 -0.2398  0.0041 -0.0000
                                           -0.0506  0.0151  0.0073  0.0000 -0.6830
                                            0.0930 -0.0637  0.0000 -0.1893  0.0196
                                            0.0305 -0.0938 -0.0848 -0.0392 -0.0231
                                           -0.1222 -0.0480  0.0317
    34. (0.00024) RY*( 5)Br   1           s( 24.87%)p 0.73( 18.14%)d 2.11( 52.48%)
                                                  f 0.18(  4.51%)
                                            0.0000  0.0000 -0.0000 -0.0035  0.4821
                                           -0.1275 -0.0000 -0.0000 -0.0156  0.1841
                                            0.0491  0.0000 -0.0000  0.0058 -0.3285
                                            0.1090  0.0000 -0.0000 -0.0199 -0.1487
                                            0.0504 -0.0000 -0.3573 -0.2069  0.0050
                                            0.0000  0.4524 -0.2484 -0.0298 -0.0000
                                           -0.1330  0.1582 -0.0173 -0.0000 -0.0367
                                            0.1175 -0.0782 -0.0000  0.1039  0.1091
                                           -0.0088 -0.0807 -0.0180  0.0195  0.1437
                                           -0.0567  0.0911  0.0760
    35. (0.00007) RY*( 6)Br   1           s(  9.69%)p 3.33( 32.24%)d 5.43( 52.63%)
                                                  f 0.56(  5.43%)
    36. (0.00003) RY*( 7)Br   1           s(  3.61%)p 8.83( 31.87%)d11.16( 40.28%)
                                                  f 6.72( 24.24%)
    37. (0.00000) RY*( 8)Br   1           s(  9.33%)p 9.63( 89.82%)d 0.09(  0.83%)
                                                  f 0.00(  0.02%)
    38. (0.00000) RY*( 9)Br   1           s(  3.11%)p29.57( 92.02%)d 1.40(  4.37%)
                                                  f 0.16(  0.50%)
    39. (0.00000) RY*(10)Br   1           s(  1.48%)p 2.22(  3.28%)d64.06( 94.71%)
                                                  f 0.36(  0.53%)
    40. (0.00000) RY*(11)Br   1           s(  0.08%)p 2.57(  0.20%)d99.99( 99.71%)
                                                  f 0.16(  0.01%)
    41. (0.00001) RY*(12)Br   1           s(  0.05%)p99.99( 72.54%)d99.99( 25.78%)
                                                  f33.33(  1.63%)
    42. (0.00000) RY*(13)Br   1           s(  0.10%)p99.99( 11.82%)d99.99( 86.95%)
                                                  f10.84(  1.12%)
    43. (0.00000) RY*(14)Br   1           s(  0.10%)p 1.42(  0.14%)d99.99( 99.70%)
                                                  f 0.65(  0.06%)
    44. (0.00000) RY*(15)Br   1           s(  0.83%)p99.99( 96.41%)d 3.02(  2.49%)
                                                  f 0.33(  0.27%)
    45. (0.00000) RY*(16)Br   1           s(  0.21%)p10.19(  2.18%)d99.99( 97.41%)
                                                  f 0.93(  0.20%)
    46. (0.00000) RY*(17)Br   1           s(  0.05%)p11.49(  0.53%)d99.99( 99.36%)
                                                  f 1.44(  0.07%)
    47. (0.00000) RY*(18)Br   1           s( 95.86%)p 0.02(  1.55%)d 0.03(  2.47%)
                                                  f 0.00(  0.13%)
    48. (0.00000) RY*(19)Br   1           s(  0.00%)p 1.00(  2.30%)d42.18( 97.14%)
                                                  f 0.24(  0.55%)
    49. (0.00000) RY*(20)Br   1           s(  0.04%)p80.70(  2.99%)d99.99( 96.40%)
                                                  f15.43(  0.57%)
    50. (0.00001) RY*(21)Br   1           s(  7.93%)p 4.56( 36.14%)d 7.04( 55.84%)
                                                  f 0.01(  0.09%)
    51. (0.00000) RY*(22)Br   1           s(  2.09%)p 2.17(  4.53%)d44.62( 93.17%)
                                                  f 0.10(  0.22%)
    52. (0.00000) RY*(23)Br   1           s(  0.03%)p53.11(  1.69%)d99.99( 98.13%)
                                                  f 4.61(  0.15%)
    53. (0.00000) RY*(24)Br   1           s(  0.04%)p19.75(  0.77%)d74.23(  2.89%)
                                                  f99.99( 96.31%)
    54. (0.00000) RY*(25)Br   1           s(  0.70%)p 7.57(  5.30%)d 6.36(  4.45%)
                                                  f99.99( 89.55%)
    55. (0.00000) RY*(26)Br   1           s(  0.03%)p22.54(  0.76%)d22.76(  0.77%)
                                                  f99.99( 98.44%)
    56. (0.00000) RY*(27)Br   1           s(  0.03%)p21.84(  0.57%)d99.99(  3.63%)
                                                  f99.99( 95.77%)
    57. (0.00000) RY*(28)Br   1           s(  0.19%)p 4.87(  0.92%)d15.75(  2.97%)
                                                  f99.99( 95.93%)
    58. (0.00001) RY*(29)Br   1           s(  0.09%)p80.40(  7.22%)d73.89(  6.63%)
                                                  f99.99( 86.06%)
    59. (0.00000) RY*(30)Br   1           s(  0.52%)p 9.81(  5.12%)d15.35(  8.02%)
                                                  f99.99( 86.34%)
    60. (0.00331) RY*( 1) C   2           s( 37.27%)p 1.16( 43.06%)d 0.50( 18.81%)
                                                  f 0.02(  0.87%)
                                           -0.0000 -0.0041  0.6085 -0.0490  0.0046
                                            0.0134  0.5811 -0.1093  0.0234  0.2194
                                           -0.0177 -0.0173  0.1729 -0.0391  0.3102
                                            0.0674  0.0308 -0.0563  0.0469 -0.0619
                                           -0.2725 -0.0367 -0.0142  0.0371 -0.0045
                                           -0.0090  0.0221  0.0418 -0.0037  0.0644
                                           -0.0465
    61. (0.00267) RY*( 2) C   2           s(  1.95%)p42.67( 83.37%)d 7.01( 13.69%)
                                                  f 0.50(  0.98%)
                                           -0.0000 -0.0036  0.1320  0.0452  0.0069
                                            0.0160 -0.5105  0.0870 -0.0073  0.2954
                                            0.0728 -0.0033  0.6850 -0.0585  0.1223
                                           -0.0621  0.2807  0.0538  0.1195  0.0489
                                           -0.0274 -0.0235  0.1054 -0.0855  0.0452
                                           -0.0195  0.0246 -0.0806 -0.0135  0.0076
                                           -0.0078
    62. (0.00158) RY*( 3) C   2           s(  9.73%)p 4.07( 39.64%)d 5.07( 49.33%)
                                                  f 0.13(  1.30%)
                                           -0.0000  0.0092  0.3031  0.0711 -0.0166
                                           -0.0150 -0.3976 -0.1267 -0.0100 -0.1266
                                            0.0117 -0.0369 -0.4412  0.0990  0.0423
                                            0.1344  0.2923 -0.0340  0.3616 -0.1105
                                           -0.2674 -0.0563  0.1490  0.3834  0.0216
                                           -0.0871 -0.0594 -0.0184 -0.0163  0.0290
                                            0.0029
    63. (0.00118) RY*( 4) C   2           s(  6.80%)p 7.38( 50.19%)d 5.87( 39.90%)
                                                  f 0.46(  3.11%)
                                           -0.0000  0.0000  0.1916 -0.1767  0.0059
                                            0.0264 -0.1857 -0.0343  0.0051  0.6182
                                            0.0737  0.0054 -0.2790 -0.0036  0.0278
                                            0.1529 -0.1807 -0.0884  0.0309 -0.0755
                                            0.4590  0.0510 -0.3339  0.0534  0.0137
                                            0.0623 -0.0173 -0.1328  0.0421 -0.0858
                                           -0.0046
    64. (0.00059) RY*( 5) C   2           s( 13.25%)p 1.69( 22.39%)d 4.76( 63.00%)
                                                  f 0.10(  1.37%)
                                            0.0000  0.0196  0.3323  0.1472  0.0004
                                           -0.0249 -0.2601 -0.2958 -0.0037 -0.1247
                                            0.0622 -0.0008 -0.0335 -0.2181 -0.0601
                                           -0.2750 -0.4402 -0.1111 -0.1861  0.2569
                                           -0.0118 -0.4856  0.0416 -0.0799 -0.0459
                                            0.0477  0.0287  0.0608  0.0540  0.0132
                                            0.0406
    65. (0.00037) RY*( 6) C   2           s( 20.13%)p 0.96( 19.32%)d 2.63( 53.03%)
                                                  f 0.37(  7.51%)
                                           -0.0000  0.0103 -0.0650  0.4423  0.0371
                                            0.0099 -0.1260 -0.1232 -0.0279  0.2251
                                           -0.3090  0.0163  0.0106  0.1213 -0.1249
                                            0.1636  0.1031 -0.1906 -0.4335  0.0359
                                           -0.3185  0.1389 -0.3532  0.0795  0.0487
                                           -0.0014  0.0042  0.2056  0.0715  0.1546
                                            0.0384
    66. (0.00031) RY*( 7) C   2           s( 13.66%)p 2.03( 27.71%)d 4.22( 57.71%)
                                                  f 0.07(  0.91%)
                                            0.0000 -0.0002  0.1556  0.3247  0.0836
                                           -0.0187 -0.0056  0.0284  0.0229 -0.2560
                                           -0.0218 -0.0135  0.3013  0.3441 -0.1086
                                            0.1077 -0.4813  0.0383  0.4182 -0.0268
                                            0.1322  0.2336 -0.2248  0.1496  0.0029
                                            0.0311 -0.0559 -0.0217  0.0283  0.0274
                                           -0.0546
    67. (0.00018) RY*( 8) C   2           s( 12.59%)p 1.94( 24.48%)d 4.69( 58.98%)
                                                  f 0.31(  3.95%)
                                           -0.0000 -0.0198  0.3325 -0.1174  0.0342
                                            0.0484 -0.0719 -0.0577  0.0019 -0.3889
                                           -0.2470  0.0134  0.0632  0.1326 -0.1149
                                            0.0348  0.3042  0.1852 -0.2449 -0.3797
                                            0.2841 -0.1858 -0.2887 -0.2140  0.0798
                                            0.0016  0.0478 -0.0654  0.0117 -0.0864
                                           -0.1375
    68. (0.00010) RY*( 9) C   2           s( 18.43%)p 1.09( 20.17%)d 2.96( 54.56%)
                                                  f 0.37(  6.85%)
                                            0.0000  0.0000 -0.1244  0.4043  0.0732
                                           -0.0161  0.1648 -0.0157 -0.0174  0.3646
                                            0.0785 -0.0034 -0.1279  0.1350 -0.2650
                                           -0.2266  0.0216  0.3520  0.1995 -0.3037
                                           -0.0783 -0.3388  0.1068 -0.1877  0.1021
                                           -0.0568  0.0258 -0.0621  0.0762  0.0459
                                           -0.2058
    69. (0.00005) RY*(10) C   2           s( 15.63%)p 0.45(  7.01%)d 4.26( 66.56%)
                                                  f 0.69( 10.80%)
    70. (0.00002) RY*(11) C   2           s(  5.04%)p 2.67( 13.49%)d14.21( 71.68%)
                                                  f 1.94(  9.78%)
    71. (0.00000) RY*(12) C   2           s(  2.09%)p38.84( 81.31%)d 7.31( 15.30%)
                                                  f 0.62(  1.29%)
    72. (0.00000) RY*(13) C   2           s(  1.73%)p 1.56(  2.71%)d55.07( 95.52%)
                                                  f 0.03(  0.05%)
    73. (0.00000) RY*(14) C   2           s(  8.48%)p 9.57( 81.21%)d 1.07(  9.09%)
                                                  f 0.14(  1.21%)
    74. (0.00000) RY*(15) C   2           s( 98.36%)p 0.00(  0.31%)d 0.01(  1.23%)
                                                  f 0.00(  0.10%)
    75. (0.00001) RY*(16) C   2           s( 14.29%)p 4.30( 61.45%)d 1.61( 23.07%)
                                                  f 0.08(  1.19%)
    76. (0.00000) RY*(17) C   2           s(  5.15%)p 0.37(  1.88%)d17.99( 92.57%)
                                                  f 0.08(  0.41%)
    77. (0.00000) RY*(18) C   2           s(  7.39%)p 1.65( 12.20%)d10.71( 79.16%)
                                                  f 0.17(  1.25%)
    78. (0.00000) RY*(19) C   2           s(  2.06%)p 1.68(  3.48%)d45.58( 94.04%)
                                                  f 0.20(  0.42%)
    79. (0.00000) RY*(20) C   2           s(  1.97%)p 0.16(  0.31%)d 1.98(  3.90%)
                                                  f47.74( 93.83%)
    80. (0.00000) RY*(21) C   2           s(  0.01%)p 1.00(  0.08%)d29.76(  2.30%)
                                                  f99.99( 97.62%)
    81. (0.00000) RY*(22) C   2           s(  0.05%)p 2.76(  0.14%)d31.52(  1.61%)
                                                  f99.99( 98.20%)
    82. (0.00000) RY*(23) C   2           s(  0.05%)p 2.39(  0.13%)d99.99( 14.56%)
                                                  f99.99( 85.25%)
    83. (0.00000) RY*(24) C   2           s(  1.19%)p 0.31(  0.37%)d 1.66(  1.98%)
                                                  f80.89( 96.46%)
    84. (0.00000) RY*(25) C   2           s(  1.61%)p 0.37(  0.59%)d 1.49(  2.40%)
                                                  f59.25( 95.40%)
    85. (0.00000) RY*(26) C   2           s(  1.24%)p 3.35(  4.14%)d11.95( 14.78%)
                                                  f64.58( 79.85%)
    86. (0.00281) RY*( 1) C   3           s( 24.73%)p 2.14( 52.96%)d 0.86( 21.20%)
                                                  f 0.04(  1.10%)
                                           -0.0000 -0.0016  0.4973 -0.0038  0.0029
                                            0.0047  0.4004 -0.0690 -0.0176  0.5575
                                           -0.1638  0.0212  0.1527  0.0527 -0.0924
                                           -0.0414  0.3348  0.0242  0.2219 -0.0517
                                            0.1329  0.0724  0.1194  0.0024  0.0312
                                           -0.0010 -0.0049 -0.0253 -0.0524 -0.0807
                                           -0.0119
    87. (0.00204) RY*( 2) C   3           s(  0.74%)p77.04( 57.22%)d54.85( 40.74%)
                                                  f 1.74(  1.29%)
                                            0.0000  0.0125  0.0770 -0.0367 -0.0004
                                            0.0088  0.5590 -0.0413 -0.0128 -0.2112
                                           -0.0357  0.0068 -0.4587 -0.0384 -0.0844
                                           -0.0838 -0.3601  0.0467 -0.1183 -0.0184
                                            0.4836  0.0008 -0.1147  0.0105 -0.0043
                                            0.0060 -0.0231  0.0259  0.0648 -0.0569
                                           -0.0648
    88. (0.00099) RY*( 3) C   3           s( 10.55%)p 2.59( 27.34%)d 5.61( 59.13%)
                                                  f 0.28(  2.98%)
                                            0.0000 -0.0019  0.3235  0.0286  0.0048
                                           -0.0015 -0.3257  0.0515  0.0235  0.2448
                                           -0.0972  0.0152  0.1689 -0.2568 -0.1534
                                            0.0997 -0.3714 -0.0001 -0.5328 -0.1442
                                            0.1309  0.1340  0.0380  0.2805 -0.1164
                                           -0.0360  0.0257 -0.0129  0.0638 -0.0980
                                           -0.0211
    89. (0.00063) RY*( 4) C   3           s( 23.06%)p 1.22( 28.07%)d 1.84( 42.37%)
                                                  f 0.28(  6.50%)
                                           -0.0000  0.0091 -0.1877  0.4394  0.0465
                                           -0.0452 -0.0089 -0.1681 -0.0279  0.1806
                                            0.2383  0.0020 -0.3597 -0.1753 -0.5664
                                            0.1490  0.0618 -0.1013  0.0468 -0.0045
                                           -0.1817 -0.0146  0.1743 -0.0273 -0.0402
                                           -0.1117 -0.0758  0.0242 -0.0732 -0.1981
                                           -0.0045
    90. (0.00040) RY*( 5) C   3           s(  0.10%)p99.99( 28.43%)d99.99( 66.04%)
                                                  f53.18(  5.43%)
                                            0.0000  0.0105  0.0148  0.0155  0.0213
                                            0.0108 -0.3620  0.3315 -0.0390  0.1417
                                            0.1322  0.0197 -0.0485  0.0380 -0.0899
                                            0.1936 -0.1527 -0.0036  0.5769 -0.1014
                                            0.4442 -0.1139 -0.1776  0.0813  0.0878
                                           -0.0844  0.0800  0.1008  0.0926  0.0155
                                           -0.1187
    91. (0.00023) RY*( 6) C   3           s( 29.12%)p 0.85( 24.69%)d 1.46( 42.39%)
                                                  f 0.13(  3.80%)
                                            0.0000  0.0163  0.2043  0.4984  0.0268
                                           -0.0006 -0.0417 -0.1005  0.0105 -0.4190
                                           -0.0478 -0.0186  0.2370  0.0239 -0.1382
                                           -0.1482  0.3112  0.0704 -0.0201 -0.0829
                                            0.1436  0.0302 -0.4808  0.1454 -0.0538
                                           -0.0950  0.0797 -0.0988 -0.0652 -0.0754
                                           -0.0082
    92. (0.00016) RY*( 7) C   3           s(  8.27%)p 6.20( 51.23%)d 4.25( 35.14%)
                                                  f 0.65(  5.37%)
                                            0.0000 -0.0249  0.2619  0.1134  0.0246
                                            0.0479 -0.1867  0.0840  0.0309  0.2918
                                            0.4101 -0.0114 -0.4620  0.0154  0.3462
                                           -0.1590  0.1605  0.0221 -0.2152  0.1974
                                           -0.0120 -0.0545 -0.2905 -0.0852 -0.0366
                                            0.0782 -0.0078 -0.1325 -0.0867  0.1408
                                            0.0357
    93. (0.00012) RY*( 8) C   3           s(  4.99%)p17.53( 87.54%)d 1.11(  5.54%)
                                                  f 0.39(  1.93%)
                                           -0.0000  0.0121  0.2173  0.0129 -0.0489
                                           -0.0035 -0.4045 -0.4014 -0.0260 -0.0925
                                           -0.5786  0.0119 -0.4474  0.0799  0.0449
                                           -0.0642  0.0064 -0.0010  0.1837 -0.0283
                                           -0.0379  0.0675  0.0887 -0.0279  0.0366
                                            0.0985 -0.0118  0.0275  0.0666  0.0381
                                            0.0383
    94. (0.00003) RY*( 9) C   3           s( 13.25%)p 4.60( 60.98%)d 1.21( 16.01%)
                                                  f 0.74(  9.76%)
    95. (0.00003) RY*(10) C   3           s(  2.40%)p 4.98( 11.95%)d29.61( 71.10%)
                                                  f 6.06( 14.55%)
    96. (0.00000) RY*(11) C   3           s(  3.80%)p 3.23( 12.29%)d21.94( 83.49%)
                                                  f 0.11(  0.42%)
    97. (0.00000) RY*(12) C   3           s( 34.65%)p 0.97( 33.72%)d 0.90( 31.14%)
                                                  f 0.01(  0.50%)
    98. (0.00000) RY*(13) C   3           s(  0.46%)p 1.59(  0.73%)d99.99( 98.69%)
                                                  f 0.27(  0.12%)
    99. (0.00000) RY*(14) C   3           s( 36.06%)p 0.13(  4.52%)d 1.64( 59.28%)
                                                  f 0.00(  0.13%)
   100. (0.00000) RY*(15) C   3           s(  0.56%)p 8.83(  4.94%)d99.99( 94.07%)
                                                  f 0.76(  0.42%)
   101. (0.00000) RY*(16) C   3           s(  0.77%)p99.99( 88.03%)d14.46( 11.14%)
                                                  f 0.08(  0.06%)
   102. (0.00000) RY*(17) C   3           s(  1.11%)p 5.13(  5.69%)d83.96( 93.13%)
                                                  f 0.06(  0.07%)
   103. (0.00000) RY*(18) C   3           s( 99.43%)p 0.00(  0.33%)d 0.00(  0.21%)
                                                  f 0.00(  0.03%)
   104. (0.00000) RY*(19) C   3           s(  2.08%)p 3.37(  7.01%)d43.66( 90.87%)
                                                  f 0.02(  0.04%)
   105. (0.00000) RY*(20) C   3           s(  0.82%)p 0.38(  0.31%)d 4.50(  3.67%)
                                                  f99.99( 95.21%)
   106. (0.00000) RY*(21) C   3           s(  0.10%)p73.17(  7.23%)d50.33(  4.97%)
                                                  f99.99( 87.70%)
   107. (0.00000) RY*(22) C   3           s(  0.30%)p 3.57(  1.07%)d23.62(  7.06%)
                                                  f99.99( 91.57%)
   108. (0.00000) RY*(23) C   3           s(  1.51%)p 0.37(  0.56%)d 2.41(  3.63%)
                                                  f62.63( 94.31%)
   109. (0.00000) RY*(24) C   3           s(  0.35%)p 1.53(  0.53%)d15.12(  5.27%)
                                                  f99.99( 93.85%)
   110. (0.00000) RY*(25) C   3           s(  0.98%)p 1.88(  1.83%)d 5.95(  5.80%)
                                                  f93.70( 91.39%)
   111. (0.00000) RY*(26) C   3           s(  0.02%)p99.99(  2.17%)d99.99(  6.43%)
                                                  f99.99( 91.38%)
   112. (0.00285) RY*( 1) C   4           s( 17.69%)p 3.78( 66.90%)d 0.84( 14.93%)
                                                  f 0.03(  0.48%)
                                           -0.0000  0.0015  0.4184  0.0430  0.0002
                                           -0.0066 -0.5924 -0.0618  0.0015  0.3029
                                           -0.0296 -0.0153 -0.4703 -0.0152  0.0895
                                           -0.1689  0.0497  0.0500 -0.0916 -0.0071
                                           -0.2103  0.1746  0.0651 -0.1428  0.0237
                                           -0.0263 -0.0104 -0.0148  0.0224  0.0216
                                           -0.0480
   113. (0.00087) RY*( 2) C   4           s(  5.59%)p13.49( 75.45%)d 3.12( 17.46%)
                                                  f 0.27(  1.49%)
                                           -0.0000  0.0024  0.2356  0.0191 -0.0069
                                           -0.0004  0.2480 -0.1520  0.0104  0.6915
                                           -0.0407 -0.0004  0.4355  0.0158 -0.1231
                                           -0.1691  0.2640 -0.0289  0.0935  0.0773
                                           -0.1579 -0.0481 -0.0996  0.0920  0.0695
                                           -0.0237 -0.0007 -0.0692  0.0214  0.0375
                                           -0.0539
   114. (0.00064) RY*( 3) C   4           s( 18.15%)p 3.03( 54.96%)d 1.24( 22.50%)
                                                  f 0.24(  4.39%)
                                            0.0000  0.0020 -0.2749  0.3254  0.0043
                                            0.0048  0.2358  0.2149 -0.0007  0.4443
                                           -0.0080 -0.0035 -0.4929 -0.0858 -0.0998
                                           -0.0627 -0.2502  0.2047  0.0344  0.0888
                                            0.1785 -0.1962 -0.0948  0.1350 -0.0982
                                            0.0811 -0.0619  0.0731 -0.0182 -0.0662
                                            0.1174
   115. (0.00024) RY*( 4) C   4           s(  9.15%)p 0.74(  6.73%)d 8.98( 82.18%)
                                                  f 0.21(  1.94%)
                                            0.0000  0.0045  0.2981 -0.0509 -0.0077
                                            0.0215 -0.1727 -0.0074 -0.0045  0.0893
                                            0.0109  0.0010  0.1472  0.0848  0.4330
                                           -0.0477 -0.1443 -0.0648  0.0513  0.0749
                                            0.6459 -0.4075  0.0935  0.0822  0.0067
                                           -0.0397  0.0755 -0.0186 -0.0120 -0.1004
                                           -0.0383
   116. (0.00017) RY*( 5) C   4           s(  0.44%)p85.27( 37.35%)d99.99( 57.09%)
                                                  f11.68(  5.11%)
                                           -0.0000 -0.0090  0.0339  0.0538  0.0162
                                           -0.0292  0.4525  0.0304  0.0185 -0.1188
                                           -0.0462  0.0251 -0.3695 -0.1154  0.4127
                                           -0.1865  0.5432 -0.1941 -0.1105 -0.0706
                                            0.0142 -0.0515  0.0974 -0.0602  0.1218
                                           -0.0221 -0.0069 -0.1274  0.0541  0.0537
                                           -0.1172
   117. (0.00014) RY*( 6) C   4           s( 50.38%)p 0.44( 22.42%)d 0.44( 22.13%)
                                                  f 0.10(  5.06%)
                                           -0.0000  0.0004  0.0246  0.7094  0.0003
                                            0.0057 -0.2074 -0.1445  0.0108 -0.1073
                                            0.3028 -0.0057  0.1409 -0.1925 -0.1953
                                            0.0241  0.2600 -0.1833  0.0601 -0.1851
                                            0.1987 -0.0224  0.0428 -0.0414  0.0120
                                            0.0935 -0.0939 -0.0028 -0.0633  0.0621
                                            0.1583
   118. (0.00004) RY*( 7) C   4           s( 12.42%)p 3.05( 37.89%)d 2.28( 28.33%)
                                                  f 1.72( 21.36%)
   119. (0.00001) RY*( 8) C   4           s( 50.90%)p 0.48( 24.65%)d 0.43( 21.67%)
                                                  f 0.05(  2.78%)
   120. (0.00001) RY*( 9) C   4           s(  7.92%)p10.76( 85.22%)d 0.58(  4.63%)
                                                  f 0.28(  2.23%)
   121. (0.00000) RY*(10) C   4           s(  6.23%)p 3.02( 18.82%)d11.21( 69.89%)
                                                  f 0.81(  5.05%)
   122. (0.00000) RY*(11) C   4           s(  2.18%)p 2.36(  5.15%)d42.42( 92.46%)
                                                  f 0.10(  0.22%)
   123. (0.00000) RY*(12) C   4           s( 99.38%)p 0.00(  0.34%)d 0.00(  0.16%)
                                                  f 0.00(  0.12%)
   124. (0.00000) RY*(13) C   4           s(  1.46%)p 3.65(  5.33%)d63.69( 93.01%)
                                                  f 0.13(  0.19%)
   125. (0.00001) RY*(14) C   4           s(  3.63%)p 2.24(  8.13%)d24.19( 87.72%)
                                                  f 0.15(  0.53%)
   126. (0.00000) RY*(15) C   4           s(  6.58%)p 0.98(  6.47%)d13.17( 86.68%)
                                                  f 0.04(  0.26%)
   127. (0.00000) RY*(16) C   4           s(  1.57%)p57.82( 90.68%)d 1.95(  3.06%)
                                                  f 2.99(  4.69%)
   128. (0.00000) RY*(17) C   4           s(  0.08%)p99.99( 17.12%)d99.99( 82.74%)
                                                  f 0.77(  0.06%)
   129. (0.00000) RY*(18) C   4           s(  0.90%)p 2.93(  2.63%)d99.99( 96.42%)
                                                  f 0.06(  0.05%)
   130. (0.00000) RY*(19) C   4           s(  0.28%)p11.44(  3.19%)d99.99( 96.49%)
                                                  f 0.17(  0.05%)
   131. (0.00000) RY*(20) C   4           s(  0.65%)p 0.75(  0.49%)d 3.36(  2.20%)
                                                  f99.99( 96.66%)
   132. (0.00000) RY*(21) C   4           s(  0.05%)p72.09(  3.79%)d41.27(  2.17%)
                                                  f99.99( 93.98%)
   133. (0.00000) RY*(22) C   4           s(  0.06%)p93.74(  6.03%)d47.91(  3.08%)
                                                  f99.99( 90.82%)
   134. (0.00000) RY*(23) C   4           s(  1.81%)p 1.31(  2.36%)d 1.57(  2.84%)
                                                  f51.49( 92.99%)
   135. (0.00000) RY*(24) C   4           s(  1.10%)p 0.65(  0.71%)d 0.48(  0.53%)
                                                  f88.68( 97.66%)
   136. (0.00000) RY*(25) C   4           s(  0.11%)p 8.60(  0.91%)d19.26(  2.05%)
                                                  f99.99( 96.93%)
   137. (0.00000) RY*(26) C   4           s(  1.30%)p13.01( 16.90%)d 5.34(  6.94%)
                                                  f57.61( 74.86%)
   138. (0.00043) RY*( 1) H   5           s( 81.77%)p 0.22( 18.23%)
                                           -0.0014  0.9043  0.0038  0.2238 -0.1896
                                            0.3102
   139. (0.00014) RY*( 2) H   5           s(  9.86%)p 9.14( 90.14%)
                                           -0.0052 -0.0868  0.3017 -0.6702 -0.5368
                                            0.4050
   140. (0.00010) RY*( 3) H   5           s( 22.22%)p 3.50( 77.78%)
                                           -0.0022  0.3955 -0.2564 -0.6687  0.2287
                                           -0.5275
   141. (0.00010) RY*( 4) H   5           s( 84.22%)p 0.19( 15.78%)
   142. (0.00001) RY*( 5) H   5           s(  1.97%)p49.71( 98.03%)
   143. (0.00059) RY*( 1) H   6           s( 92.76%)p 0.08(  7.24%)
                                           -0.0025  0.9631 -0.0053  0.1478 -0.2154
                                            0.0642
   144. (0.00011) RY*( 2) H   6           s( 78.32%)p 0.28( 21.68%)
                                           -0.0001  0.0818  0.8812 -0.4482 -0.0012
                                           -0.1259
   145. (0.00008) RY*( 3) H   6           s( 24.40%)p 3.10( 75.60%)
   146. (0.00005) RY*( 4) H   6           s(  3.01%)p32.19( 96.99%)
   147. (0.00002) RY*( 5) H   6           s(  1.54%)p63.84( 98.46%)
   148. (0.00057) RY*( 1) H   7           s( 87.66%)p 0.14( 12.34%)
                                           -0.0024  0.9361  0.0154 -0.3288  0.0646
                                            0.1055
   149. (0.00011) RY*( 2) H   7           s( 57.60%)p 0.74( 42.40%)
                                           -0.0039 -0.2366  0.7211 -0.5326  0.3563
                                            0.1159
   150. (0.00010) RY*( 3) H   7           s( 14.81%)p 5.75( 85.19%)
   151. (0.00007) RY*( 4) H   7           s( 37.26%)p 1.68( 62.74%)
   152. (0.00002) RY*( 5) H   7           s(  2.71%)p35.92( 97.29%)
   153. (0.00040) RY*( 1) H   8           s( 90.78%)p 0.10(  9.22%)
                                           -0.0025  0.9524  0.0280 -0.1815  0.1675
                                            0.1767
   154. (0.00013) RY*( 2) H   8           s( 83.24%)p 0.20( 16.76%)
                                           -0.0025 -0.1210  0.9043 -0.3740  0.1637
                                           -0.0307
   155. (0.00010) RY*( 3) H   8           s(  4.07%)p23.55( 95.93%)
   156. (0.00005) RY*( 4) H   8           s( 20.53%)p 3.87( 79.47%)
   157. (0.00002) RY*( 5) H   8           s(  1.42%)p69.63( 98.58%)
   158. (0.00025) RY*( 1) H   9           s( 90.80%)p 0.10(  9.20%)
                                           -0.0002  0.9524  0.0313 -0.1022  0.0584
                                            0.2795
   159. (0.00011) RY*( 2) H   9           s( 81.29%)p 0.23( 18.71%)
                                           -0.0042 -0.1201  0.8936 -0.3989  0.0799
                                            0.1467
   160. (0.00009) RY*( 3) H   9           s(  2.07%)p47.28( 97.93%)
   161. (0.00005) RY*( 4) H   9           s( 17.07%)p 4.86( 82.93%)
   162. (0.00001) RY*( 5) H   9           s(  8.79%)p10.37( 91.21%)
   163. (0.00066) RY*( 1) H  10           s( 91.13%)p 0.10(  8.87%)
                                            0.0003  0.9546  0.0111  0.2248  0.1953
                                            0.0003
   164. (0.00023) RY*( 2) H  10           s(  0.83%)p99.99( 99.17%)
                                           -0.0010  0.0442  0.0797 -0.7545  0.6482
                                           -0.0478
   165. (0.00014) RY*( 3) H  10           s( 67.15%)p 0.49( 32.85%)
                                            0.0006 -0.1748  0.8006  0.3937  0.3558
                                           -0.2166
   166. (0.00008) RY*( 4) H  10           s( 38.36%)p 1.61( 61.64%)
   167. (0.00002) RY*( 5) H  10           s(  2.59%)p37.65( 97.41%)
   168. (0.06387) BD*( 1)Br   1 - C   2  
                ( 40.79%)   0.6387*Br   1 s(  7.80%)p11.80( 92.06%)d 0.02(  0.13%)
                                                  f 0.00(  0.01%)
                                            0.0000  0.0000 -0.0000 -0.2788 -0.0170
                                            0.0004  0.0000  0.0001 -0.8156 -0.0136
                                            0.0016  0.0000 -0.0000  0.2868  0.0050
                                           -0.0005  0.0000  0.0000 -0.4158 -0.0064
                                            0.0004  0.0000  0.0073 -0.0040  0.0006
                                           -0.0000 -0.0215 -0.0035 -0.0003  0.0000
                                            0.0065 -0.0045 -0.0002  0.0000 -0.0215
                                           -0.0097  0.0002  0.0000  0.0127  0.0010
                                           -0.0008  0.0042  0.0041  0.0021 -0.0033
                                            0.0025  0.0000 -0.0018
                ( 59.21%)  -0.7695* C   2 s( 15.93%)p 5.24( 83.41%)d 0.04(  0.62%)
                                                  f 0.00(  0.03%)
                                            0.0000 -0.3985 -0.0195  0.0126 -0.0010
                                            0.7783 -0.0286 -0.0146  0.4697  0.0015
                                            0.0040  0.0795 -0.0209 -0.0052 -0.0113
                                           -0.0059 -0.0456  0.0074  0.0094 -0.0049
                                           -0.0505  0.0045  0.0349 -0.0043 -0.0086
                                           -0.0034 -0.0005  0.0096  0.0032  0.0115
                                            0.0028
   169. (0.02944) BD*( 1)Br   1 - C   3  
                ( 40.29%)   0.6348*Br   1 s(  8.26%)p11.09( 91.60%)d 0.02(  0.13%)
                                                  f 0.00(  0.01%)
                                            0.0000  0.0000  0.0000 -0.2867 -0.0210
                                            0.0005  0.0000 -0.0000 -0.3169 -0.0050
                                           -0.0002 -0.0000  0.0000 -0.8786 -0.0175
                                            0.0006  0.0000 -0.0000  0.2082  0.0046
                                            0.0004  0.0000 -0.0223 -0.0118 -0.0001
                                            0.0000  0.0001  0.0023  0.0008  0.0000
                                            0.0089 -0.0020  0.0001  0.0000  0.0157
                                           -0.0006  0.0006  0.0000  0.0181  0.0033
                                           -0.0005 -0.0003  0.0046  0.0041 -0.0048
                                           -0.0010  0.0013 -0.0017
                ( 59.71%)  -0.7727* C   3 s( 13.68%)p 6.26( 85.58%)d 0.05(  0.71%)
                                                  f 0.00(  0.04%)
                                           -0.0000 -0.3693 -0.0133  0.0143 -0.0009
                                            0.8502 -0.0033 -0.0092  0.3569 -0.0246
                                           -0.0131  0.0683  0.0021  0.0016 -0.0650
                                            0.0030 -0.0001  0.0001  0.0248 -0.0077
                                            0.0045 -0.0053  0.0459 -0.0049  0.0026
                                           -0.0057 -0.0079  0.0015 -0.0025 -0.0140
                                            0.0077
   170. (0.00895) BD*( 1) C   2 - C   3  
                ( 50.29%)   0.7091* C   2 s( 20.13%)p 3.95( 79.48%)d 0.02(  0.37%)
                                                  f 0.00(  0.02%)
                                            0.0001  0.4484 -0.0141 -0.0035  0.0008
                                           -0.2009 -0.0047  0.0109  0.7819  0.0107
                                            0.0029 -0.3778  0.0075  0.0022 -0.0349
                                            0.0029  0.0323 -0.0037 -0.0320 -0.0044
                                            0.0040 -0.0127 -0.0142  0.0008  0.0075
                                            0.0001  0.0020 -0.0037  0.0083 -0.0009
                                            0.0036
                ( 49.71%)  -0.7051* C   3 s( 25.26%)p 2.94( 74.27%)d 0.02(  0.45%)
                                                  f 0.00(  0.02%)
                                            0.0002  0.5022 -0.0173 -0.0055  0.0003
                                            0.4451  0.0033  0.0037 -0.6120  0.0042
                                            0.0101  0.4121  0.0118  0.0030 -0.0006
                                           -0.0105  0.0045  0.0039 -0.0414 -0.0019
                                           -0.0442  0.0042 -0.0260  0.0027 -0.0072
                                            0.0020  0.0065 -0.0089  0.0008  0.0017
                                            0.0036
   171. (0.01542) BD*( 1) C   2 - C   4  
                ( 46.64%)   0.6829* C   2 s( 33.57%)p 1.98( 66.33%)d 0.00(  0.09%)
                                                  f 0.00(  0.01%)
                                           -0.0000 -0.5793  0.0140 -0.0006  0.0004
                                           -0.5744 -0.0165  0.0066  0.3892  0.0115
                                            0.0026  0.4260 -0.0070 -0.0008  0.0016
                                            0.0069  0.0164  0.0089 -0.0109 -0.0031
                                           -0.0115 -0.0043 -0.0132  0.0041 -0.0028
                                           -0.0000 -0.0006  0.0033 -0.0021 -0.0020
                                            0.0052
                ( 53.36%)  -0.7305* C   4 s( 25.81%)p 2.87( 74.01%)d 0.01(  0.16%)
                                                  f 0.00(  0.01%)
                                           -0.0002 -0.5078 -0.0171 -0.0002 -0.0001
                                            0.7018  0.0102 -0.0107 -0.2558  0.0009
                                            0.0055 -0.4264 -0.0074  0.0009  0.0208
                                            0.0004  0.0264  0.0034 -0.0109 -0.0007
                                           -0.0187 -0.0027  0.0050  0.0016  0.0035
                                            0.0010  0.0032 -0.0035  0.0073  0.0018
                                           -0.0023
   172. (0.02117) BD*( 1) C   2 - H  10  
                ( 35.74%)   0.5978* C   2 s( 30.20%)p 2.31( 69.62%)d 0.01(  0.17%)
                                                  f 0.00(  0.01%)
                                            0.0001 -0.5494 -0.0129 -0.0080  0.0005
                                           -0.1286 -0.0028  0.0015 -0.1144  0.0050
                                           -0.0014 -0.8163  0.0053 -0.0121 -0.0116
                                           -0.0025 -0.0094 -0.0060 -0.0278 -0.0001
                                           -0.0001  0.0018 -0.0218 -0.0119 -0.0033
                                           -0.0080 -0.0043 -0.0040  0.0014  0.0006
                                           -0.0016
                ( 64.26%)  -0.8016* H  10 s( 99.95%)p 0.00(  0.05%)
                                           -0.9997 -0.0024  0.0002  0.0057  0.0067
                                            0.0213
   173. (0.01590) BD*( 1) C   3 - H   5  
                ( 35.68%)   0.5973* C   3 s( 32.14%)p 2.11( 67.71%)d 0.00(  0.13%)
                                                  f 0.00(  0.02%)
                                            0.0001 -0.5668  0.0018 -0.0082  0.0004
                                            0.0812 -0.0041  0.0025 -0.6953 -0.0036
                                           -0.0054 -0.4324  0.0091 -0.0053 -0.0045
                                            0.0005  0.0067 -0.0020 -0.0313 -0.0083
                                            0.0071  0.0090 -0.0083  0.0028  0.0049
                                           -0.0012  0.0001  0.0078 -0.0028  0.0015
                                            0.0094
                ( 64.32%)  -0.8020* H   5 s( 99.95%)p 0.00(  0.05%)
                                           -0.9998 -0.0015  0.0002 -0.0002  0.0188
                                            0.0114
   174. (0.01515) BD*( 1) C   3 - H   6  
                ( 36.88%)   0.6073* C   3 s( 28.73%)p 2.47( 71.07%)d 0.01(  0.19%)
                                                  f 0.00(  0.01%)
                                           -0.0000  0.5360  0.0092  0.0022 -0.0002
                                            0.2583  0.0003 -0.0009  0.0878  0.0190
                                            0.0002 -0.7974  0.0002 -0.0077 -0.0021
                                            0.0002 -0.0176 -0.0069  0.0190 -0.0074
                                            0.0005  0.0036  0.0321  0.0077 -0.0038
                                            0.0067  0.0039  0.0004 -0.0044 -0.0012
                                           -0.0017
                ( 63.12%)  -0.7945* H   6 s( 99.96%)p 0.00(  0.04%)
                                            0.9998  0.0024 -0.0000 -0.0052  0.0009
                                            0.0185
   175. (0.00463) BD*( 1) C   4 - H   7  
                ( 38.09%)   0.6172* C   4 s( 23.76%)p 3.20( 76.09%)d 0.01(  0.14%)
                                                  f 0.00(  0.01%)
                                            0.0001  0.4874 -0.0082 -0.0000 -0.0000
                                           -0.2411  0.0133 -0.0003 -0.4814 -0.0046
                                           -0.0012 -0.6862 -0.0003 -0.0030  0.0154
                                           -0.0001  0.0225 -0.0004  0.0230  0.0027
                                           -0.0007 -0.0033  0.0124  0.0017  0.0003
                                           -0.0020 -0.0048  0.0019 -0.0061 -0.0016
                                           -0.0001
                ( 61.91%)  -0.7868* H   7 s( 99.97%)p 0.00(  0.03%)
                                            0.9998  0.0011  0.0001  0.0027  0.0110
                                            0.0149
   176. (0.00530) BD*( 1) C   4 - H   8  
                ( 38.14%)   0.6175* C   4 s( 25.87%)p 2.86( 73.98%)d 0.01(  0.14%)
                                                  f 0.00(  0.01%)
                                            0.0004 -0.5086  0.0055  0.0008  0.0000
                                           -0.4484 -0.0082 -0.0022 -0.6809  0.0085
                                           -0.0013  0.2739  0.0019  0.0007 -0.0238
                                           -0.0024  0.0051  0.0031  0.0148  0.0015
                                            0.0201 -0.0014  0.0147  0.0001 -0.0014
                                            0.0005  0.0037 -0.0012  0.0064  0.0037
                                           -0.0001
                ( 61.86%)  -0.7865* H   8 s( 99.97%)p 0.00(  0.03%)
                                           -0.9998 -0.0011 -0.0002  0.0125  0.0121
                                           -0.0067
   177. (0.00528) BD*( 1) C   4 - H   9  
                ( 38.05%)   0.6169* C   4 s( 24.54%)p 3.07( 75.29%)d 0.01(  0.16%)
                                                  f 0.00(  0.01%)
                                            0.0002 -0.4954  0.0000 -0.0012  0.0000
                                           -0.4954  0.0010 -0.0008  0.4872 -0.0032
                                            0.0019 -0.5196  0.0089 -0.0017  0.0127
                                            0.0028 -0.0256 -0.0004  0.0259 -0.0005
                                            0.0066 -0.0022 -0.0092  0.0007 -0.0002
                                           -0.0004  0.0046 -0.0008  0.0055  0.0021
                                            0.0021
                ( 61.95%)  -0.7871* H   9 s( 99.97%)p 0.00(  0.03%)
                                           -0.9998 -0.0006 -0.0001  0.0113 -0.0110
                                            0.0080


 NHO Directionality and "Bond Bending" (deviations from line of nuclear centers)

         [Thresholds for printing:  angular deviation  >  1.0 degree]
                                    hybrid p-character > 25.0%
                                    orbital occupancy  >  0.10e

                                Line of Centers        Hybrid 1              Hybrid 2
                                ---------------  -------------------   ------------------
                NBO               Theta   Phi    Theta   Phi    Dev    Theta   Phi    Dev
 ========================================================================================
     1. BD (   1)Br   1 - C   2    72.5    5.7    64.3  340.6  24.7     93.5  212.9  30.1
     2. BD (   1)Br   1 - C   3    93.4   47.8   102.6   70.2  24.1     94.6  200.9  28.0
     3. BD (   1) C   2 - C   3   117.3  114.2   114.2  103.8   9.9     60.3  307.1  11.6
     4. BD (   1) C   2 - C   4   120.1  337.1   120.5  325.4  10.1     59.8  160.4   2.9
     5. BD (   1) C   2 - H  10    21.1   41.4    11.7   40.5   9.4      --     --    --
     6. BD (   1) C   3 - H   5    58.8   89.0    58.8   96.5   6.4      --     --    --
     7. BD (   1) C   3 - H   6   158.9   15.8   160.9   22.5   3.1      --     --    --
     8. BD (   1) C   4 - H   7   140.9  241.2   142.0  244.9   2.6      --     --    --
    29. LP (   2)Br   1             --     --    152.3  313.8   --       --     --    --


 Second Order Perturbation Theory Analysis of Fock Matrix in NBO Basis

     Threshold for printing:   0.50 kcal/mol
                                                                              E(2)  E(j)-E(i) F(i,j)
         Donor NBO (i)                     Acceptor NBO (j)                 kcal/mol   a.u.    a.u. 
 ===================================================================================================

 within unit  1
   1. BD (   1)Br   1 - C   2        / 86. RY*(   1) C   3                    0.80    1.57    0.032
   1. BD (   1)Br   1 - C   2        /113. RY*(   2) C   4                    0.90    1.95    0.038
   1. BD (   1)Br   1 - C   2        /168. BD*(   1)Br   1 - C   2            0.92    0.71    0.023
   1. BD (   1)Br   1 - C   2        /169. BD*(   1)Br   1 - C   3            9.16    0.73    0.073
   1. BD (   1)Br   1 - C   2        /173. BD*(   1) C   3 - H   5            2.38    1.09    0.046
   1. BD (   1)Br   1 - C   2        /174. BD*(   1) C   3 - H   6            0.61    1.09    0.023
   1. BD (   1)Br   1 - C   2        /176. BD*(   1) C   4 - H   8            1.05    1.14    0.031
   2. BD (   1)Br   1 - C   3        / 60. RY*(   1) C   2                    1.01    1.73    0.038
   2. BD (   1)Br   1 - C   3        /168. BD*(   1)Br   1 - C   2            9.52    0.71    0.074
   2. BD (   1)Br   1 - C   3        /169. BD*(   1)Br   1 - C   3            0.70    0.73    0.020
   2. BD (   1)Br   1 - C   3        /171. BD*(   1) C   2 - C   4            2.22    1.07    0.044
   2. BD (   1)Br   1 - C   3        /172. BD*(   1) C   2 - H  10            1.16    1.11    0.032
   3. BD (   1) C   2 - C   3        / 30. RY*(   1)Br   1                    3.00    1.76    0.065
   3. BD (   1) C   2 - C   3        /112. RY*(   1) C   4                    0.80    2.17    0.037
   3. BD (   1) C   2 - C   3        /176. BD*(   1) C   4 - H   8            0.87    1.23    0.029
   3. BD (   1) C   2 - C   3        /177. BD*(   1) C   4 - H   9            1.29    1.24    0.036
   4. BD (   1) C   2 - C   4        /168. BD*(   1)Br   1 - C   2            0.97    0.79    0.025
   4. BD (   1) C   2 - C   4        /170. BD*(   1) C   2 - C   3            0.53    1.09    0.022
   4. BD (   1) C   2 - C   4        /173. BD*(   1) C   3 - H   5            1.13    1.17    0.033
   4. BD (   1) C   2 - C   4        /174. BD*(   1) C   3 - H   6            0.83    1.17    0.028
   5. BD (   1) C   2 - H  10        / 86. RY*(   1) C   3                    0.58    1.56    0.027
   5. BD (   1) C   2 - H  10        /112. RY*(   1) C   4                    1.41    2.07    0.048
   5. BD (   1) C   2 - H  10        /114. RY*(   3) C   4                    0.51    2.28    0.031
   5. BD (   1) C   2 - H  10        /168. BD*(   1)Br   1 - C   2            2.05    0.70    0.034
   5. BD (   1) C   2 - H  10        /173. BD*(   1) C   3 - H   5            0.73    1.08    0.025
   5. BD (   1) C   2 - H  10        /174. BD*(   1) C   3 - H   6            1.97    1.07    0.041
   5. BD (   1) C   2 - H  10        /175. BD*(   1) C   4 - H   7            1.87    1.13    0.041
   5. BD (   1) C   2 - H  10        /177. BD*(   1) C   4 - H   9            0.74    1.14    0.026
   6. BD (   1) C   3 - H   5        / 63. RY*(   4) C   2                    0.55    2.18    0.031
   6. BD (   1) C   3 - H   5        /169. BD*(   1)Br   1 - C   3            1.60    0.72    0.031
   6. BD (   1) C   3 - H   5        /171. BD*(   1) C   2 - C   4            1.20    1.07    0.032
   6. BD (   1) C   3 - H   5        /172. BD*(   1) C   2 - H  10            0.75    1.11    0.026
   7. BD (   1) C   3 - H   6        / 31. RY*(   2)Br   1                    0.59    1.64    0.028
   7. BD (   1) C   3 - H   6        / 61. RY*(   2) C   2                    0.67    1.67    0.030
   7. BD (   1) C   3 - H   6        /169. BD*(   1)Br   1 - C   3            2.01    0.71    0.034
   7. BD (   1) C   3 - H   6        /172. BD*(   1) C   2 - H  10            1.30    1.10    0.034
   7. BD (   1) C   3 - H   6        /177. BD*(   1) C   4 - H   9            0.53    1.14    0.022
   8. BD (   1) C   4 - H   7        /168. BD*(   1)Br   1 - C   2            1.43    0.64    0.027
   8. BD (   1) C   4 - H   7        /172. BD*(   1) C   2 - H  10            2.14    1.04    0.042
   9. BD (   1) C   4 - H   8        / 63. RY*(   4) C   2                    0.64    2.12    0.033
   9. BD (   1) C   4 - H   8        /168. BD*(   1)Br   1 - C   2            8.71    0.65    0.068
   9. BD (   1) C   4 - H   8        /170. BD*(   1) C   2 - C   3            0.82    0.95    0.025
  10. BD (   1) C   4 - H   9        / 61. RY*(   2) C   2                    0.55    1.62    0.027
  10. BD (   1) C   4 - H   9        /168. BD*(   1)Br   1 - C   2            1.82    0.64    0.031
  10. BD (   1) C   4 - H   9        /170. BD*(   1) C   2 - C   3            2.68    0.94    0.045
  10. BD (   1) C   4 - H   9        /172. BD*(   1) C   2 - H  10            0.78    1.04    0.025
  13. CR (   3)Br   1                / 60. RY*(   1) C   2                    0.64   12.62    0.080
  13. CR (   3)Br   1                / 86. RY*(   1) C   3                    0.61   12.47    0.078
  13. CR (   3)Br   1                /171. BD*(   1) C   2 - C   4            0.65   11.97    0.079
  20. CR (  10)Br   1                /169. BD*(   1)Br   1 - C   3            0.53    2.90    0.035
  25. CR (   1) C   2                /116. RY*(   5) C   4                    0.50   11.42    0.068
  25. CR (   1) C   2                /168. BD*(   1)Br   1 - C   2            4.03   10.30    0.185
  25. CR (   1) C   2                /170. BD*(   1) C   2 - C   3            0.70   10.60    0.077
  26. CR (   1) C   3                /169. BD*(   1)Br   1 - C   3            2.76   10.31    0.152
  27. CR (   1) C   4                / 61. RY*(   2) C   2                    1.17   11.15    0.102
  27. CR (   1) C   4                /168. BD*(   1)Br   1 - C   2            0.69   10.17    0.076
  28. LP (   1)Br   1                / 60. RY*(   1) C   2                    0.84    2.10    0.037
  28. LP (   1)Br   1                / 86. RY*(   1) C   3                    0.59    1.94    0.030
  28. LP (   1)Br   1                /168. BD*(   1)Br   1 - C   2            0.57    1.08    0.022
  28. LP (   1)Br   1                /171. BD*(   1) C   2 - C   4            1.11    1.44    0.036
  29. LP (   2)Br   1                / 61. RY*(   2) C   2                    0.52    1.46    0.025
  29. LP (   2)Br   1                /171. BD*(   1) C   2 - C   4            3.23    0.84    0.047
  29. LP (   2)Br   1                /172. BD*(   1) C   2 - H  10            4.33    0.88    0.055
  29. LP (   2)Br   1                /173. BD*(   1) C   3 - H   5            3.83    0.87    0.052
  29. LP (   2)Br   1                /174. BD*(   1) C   3 - H   6            2.89    0.86    0.045


 Natural Bond Orbitals (Summary):

                                                            Principal Delocalizations
           NBO                        Occupancy    Energy   (geminal,vicinal,remote)
 ====================================================================================
 Molecular unit  1  (C3H6Br)
     1. BD (   1)Br   1 - C   2          1.96906    -0.70536  169(g),173(v),176(v),168(g)
                                                    113(v),86(v),174(v)
     2. BD (   1)Br   1 - C   3          1.97249    -0.70795  168(g),171(v),172(v),60(v)
                                                    169(g)
     3. BD (   1) C   2 - C   3          1.98888    -0.78963  30(v),177(v),176(v),112(v)
     4. BD (   1) C   2 - C   4          1.98926    -0.78570  173(v),168(g),174(v),170(g)
     5. BD (   1) C   2 - H  10          1.98190    -0.69247  168(g),174(v),175(v),112(v)
                                                    177(v),173(v),86(v),114(v)
     6. BD (   1) C   3 - H   5          1.99002    -0.70449  169(g),171(v),172(v),63(v)
     7. BD (   1) C   3 - H   6          1.98963    -0.69377  169(g),172(v),61(v),31(v)
                                                    177(r)
     8. BD (   1) C   4 - H   7          1.98495    -0.63831  172(v),168(v)
     9. BD (   1) C   4 - H   8          1.97201    -0.64342  168(v),170(v),63(v)
    10. BD (   1) C   4 - H   9          1.98620    -0.63497  170(v),168(v),172(v),61(v)
    11. CR (   1)Br   1                  2.00000  -470.66174   
    12. CR (   2)Br   1                  2.00000   -72.48133   
    13. CR (   3)Br   1                  1.99972   -11.60327  171(v),60(v),86(v)
    14. CR (   4)Br   1                  2.00000   -56.44914   
    15. CR (   5)Br   1                  1.99988    -6.91586   
    16. CR (   6)Br   1                  2.00000   -56.44850   
    17. CR (   7)Br   1                  1.99994    -6.91502   
    18. CR (   8)Br   1                  2.00000   -56.44643   
    19. CR (   9)Br   1                  1.99998    -6.90945   
    20. CR (  10)Br   1                  1.99966    -2.87665  169(g)
    21. CR (  11)Br   1                  1.99980    -2.87122   
    22. CR (  12)Br   1                  1.99996    -2.86940   
    23. CR (  13)Br   1                  1.99965    -2.87656   
    24. CR (  14)Br   1                  1.99987    -2.86813   
    25. CR (   1) C   2                  1.99900   -10.29417  168(g),170(g),116(v)
    26. CR (   1) C   3                  1.99917   -10.28517  169(g)
    27. CR (   1) C   4                  1.99938   -10.16791  61(v),168(v)
    28. LP (   1)Br   1                  1.99666    -1.07476  171(v),60(v),86(v),168(g)
    29. LP (   2)Br   1                  1.96068    -0.47613  172(v),173(v),171(v),174(v)
                                                    61(v)
    30. RY*(   1)Br   1                  0.00525     0.96878   
    31. RY*(   2)Br   1                  0.00220     0.94655   
    32. RY*(   3)Br   1                  0.00122     0.87025   
    33. RY*(   4)Br   1                  0.00042     1.67320   
    34. RY*(   5)Br   1                  0.00024     1.33898   
    35. RY*(   6)Br   1                  0.00007     1.67007   
    36. RY*(   7)Br   1                  0.00003     1.56163   
    37. RY*(   8)Br   1                  0.00000     1.20112   
    38. RY*(   9)Br   1                  0.00000     1.45996   
    39. RY*(  10)Br   1                  0.00000     1.56380   
    40. RY*(  11)Br   1                  0.00000     4.19912   
    41. RY*(  12)Br   1                  0.00001     0.97202   
    42. RY*(  13)Br   1                  0.00000     1.35597   
    43. RY*(  14)Br   1                  0.00000     4.09372   
    44. RY*(  15)Br   1                  0.00000     1.47577   
    45. RY*(  16)Br   1                  0.00000     1.44718   
    46. RY*(  17)Br   1                  0.00000     3.93357   
    47. RY*(  18)Br   1                  0.00000     7.07752   
    48. RY*(  19)Br   1                  0.00000     1.54559   
    49. RY*(  20)Br   1                  0.00000     4.00953   
    50. RY*(  21)Br   1                  0.00001     1.24703   
    51. RY*(  22)Br   1                  0.00000     1.46203   
    52. RY*(  23)Br   1                  0.00000     4.01470   
    53. RY*(  24)Br   1                  0.00000     1.61398   
    54. RY*(  25)Br   1                  0.00000     1.66058   
    55. RY*(  26)Br   1                  0.00000     1.60515   
    56. RY*(  27)Br   1                  0.00000     1.62672   
    57. RY*(  28)Br   1                  0.00000     1.69816   
    58. RY*(  29)Br   1                  0.00001     1.68547   
    59. RY*(  30)Br   1                  0.00000     1.61246   
    60. RY*(   1) C   2                  0.00331     1.02075   
    61. RY*(   2) C   2                  0.00267     0.98104   
    62. RY*(   3) C   2                  0.00158     1.62530   
    63. RY*(   4) C   2                  0.00118     1.47418   
    64. RY*(   5) C   2                  0.00059     2.21667   
    65. RY*(   6) C   2                  0.00037     1.67929   
    66. RY*(   7) C   2                  0.00031     1.63728   
    67. RY*(   8) C   2                  0.00018     2.22945   
    68. RY*(   9) C   2                  0.00010     2.71044   
    69. RY*(  10) C   2                  0.00005     2.06205   
    70. RY*(  11) C   2                  0.00002     1.90491   
    71. RY*(  12) C   2                  0.00000     1.25166   
    72. RY*(  13) C   2                  0.00000     3.14964   
    73. RY*(  14) C   2                  0.00000     1.41562   
    74. RY*(  15) C   2                  0.00000    20.23998   
    75. RY*(  16) C   2                  0.00001     2.03098   
    76. RY*(  17) C   2                  0.00000     3.09488   
    77. RY*(  18) C   2                  0.00000     1.45757   
    78. RY*(  19) C   2                  0.00000     2.94248   
    79. RY*(  20) C   2                  0.00000     3.44059   
    80. RY*(  21) C   2                  0.00000     3.48876   
    81. RY*(  22) C   2                  0.00000     3.49863   
    82. RY*(  23) C   2                  0.00000     3.31893   
    83. RY*(  24) C   2                  0.00000     3.48462   
    84. RY*(  25) C   2                  0.00000     3.35768   
    85. RY*(  26) C   2                  0.00000     3.28807   
    86. RY*(   1) C   3                  0.00281     0.86896   
    87. RY*(   2) C   3                  0.00204     0.92507   
    88. RY*(   3) C   3                  0.00099     1.65876   
    89. RY*(   4) C   3                  0.00063     1.62409   
    90. RY*(   5) C   3                  0.00040     1.15414   
    91. RY*(   6) C   3                  0.00023     1.39830   
    92. RY*(   7) C   3                  0.00016     1.63534   
    93. RY*(   8) C   3                  0.00012     1.42195   
    94. RY*(   9) C   3                  0.00003     1.76399   
    95. RY*(  10) C   3                  0.00003     1.49272   
    96. RY*(  11) C   3                  0.00000     2.73416   
    97. RY*(  12) C   3                  0.00000     0.95992   
    98. RY*(  13) C   3                  0.00000     3.01769   
    99. RY*(  14) C   3                  0.00000     1.66819   
   100. RY*(  15) C   3                  0.00000     3.22373   
   101. RY*(  16) C   3                  0.00000     1.50659   
   102. RY*(  17) C   3                  0.00000     3.07305   
   103. RY*(  18) C   3                  0.00000    21.03331   
   104. RY*(  19) C   3                  0.00000     2.94687   
   105. RY*(  20) C   3                  0.00000     3.38258   
   106. RY*(  21) C   3                  0.00000     3.13089   
   107. RY*(  22) C   3                  0.00000     3.25273   
   108. RY*(  23) C   3                  0.00000     3.45169   
   109. RY*(  24) C   3                  0.00000     3.25611   
   110. RY*(  25) C   3                  0.00000     3.12644   
   111. RY*(  26) C   3                  0.00000     3.23077   
   112. RY*(   1) C   4                  0.00285     1.37557   
   113. RY*(   2) C   4                  0.00087     1.24043   
   114. RY*(   3) C   4                  0.00064     1.59170   
   115. RY*(   4) C   4                  0.00024     1.18764   
   116. RY*(   5) C   4                  0.00017     1.12142   
   117. RY*(   6) C   4                  0.00014     2.20458   
   118. RY*(   7) C   4                  0.00004     1.76466   
   119. RY*(   8) C   4                  0.00001     1.11750   
   120. RY*(   9) C   4                  0.00001     1.62903   
   121. RY*(  10) C   4                  0.00000     1.41084   
   122. RY*(  11) C   4                  0.00000     3.22826   
   123. RY*(  12) C   4                  0.00000    20.98825   
   124. RY*(  13) C   4                  0.00000     3.22823   
   125. RY*(  14) C   4                  0.00001     1.69038   
   126. RY*(  15) C   4                  0.00000     2.95717   
   127. RY*(  16) C   4                  0.00000     1.71904   
   128. RY*(  17) C   4                  0.00000     2.85102   
   129. RY*(  18) C   4                  0.00000     1.39484   
   130. RY*(  19) C   4                  0.00000     2.78046   
   131. RY*(  20) C   4                  0.00000     3.44371   
   132. RY*(  21) C   4                  0.00000     3.41646   
   133. RY*(  22) C   4                  0.00000     3.45461   
   134. RY*(  23) C   4                  0.00000     3.37322   
   135. RY*(  24) C   4                  0.00000     3.88574   
   136. RY*(  25) C   4                  0.00000     3.57802   
   137. RY*(  26) C   4                  0.00000     3.05313   
   138. RY*(   1) H   5                  0.00043     1.60270   
   139. RY*(   2) H   5                  0.00014     2.16365   
   140. RY*(   3) H   5                  0.00010     1.96527   
   141. RY*(   4) H   5                  0.00010     1.34133   
   142. RY*(   5) H   5                  0.00001     2.99734   
   143. RY*(   1) H   6                  0.00059     1.23811   
   144. RY*(   2) H   6                  0.00011     1.65858   
   145. RY*(   3) H   6                  0.00008     1.90891   
   146. RY*(   4) H   6                  0.00005     2.72072   
   147. RY*(   5) H   6                  0.00002     2.64822   
   148. RY*(   1) H   7                  0.00057     1.47216   
   149. RY*(   2) H   7                  0.00011     1.42380   
   150. RY*(   3) H   7                  0.00010     2.09880   
   151. RY*(   4) H   7                  0.00007     2.16026   
   152. RY*(   5) H   7                  0.00002     3.06154   
   153. RY*(   1) H   8                  0.00040     1.42876   
   154. RY*(   2) H   8                  0.00013     1.28562   
   155. RY*(   3) H   8                  0.00010     2.16220   
   156. RY*(   4) H   8                  0.00005     2.31302   
   157. RY*(   5) H   8                  0.00002     3.06198   
   158. RY*(   1) H   9                  0.00025     1.55689   
   159. RY*(   2) H   9                  0.00011     1.15929   
   160. RY*(   3) H   9                  0.00009     2.25207   
   161. RY*(   4) H   9                  0.00005     2.35232   
   162. RY*(   5) H   9                  0.00001     2.97783   
   163. RY*(   1) H  10                  0.00066     1.31675   
   164. RY*(   2) H  10                  0.00023     2.59081   
   165. RY*(   3) H  10                  0.00014     1.47815   
   166. RY*(   4) H  10                  0.00008     2.14559   
   167. RY*(   5) H  10                  0.00002     3.05697   
   168. BD*(   1)Br   1 - C   2          0.06387     0.00563   
   169. BD*(   1)Br   1 - C   3          0.02944     0.02016   
   170. BD*(   1) C   2 - C   3          0.00895     0.30878   
   171. BD*(   1) C   2 - C   4          0.01542     0.36607   
   172. BD*(   1) C   2 - H  10          0.02117     0.40215   
   173. BD*(   1) C   3 - H   5          0.01590     0.38922   
   174. BD*(   1) C   3 - H   6          0.01515     0.37997   
   175. BD*(   1) C   4 - H   7          0.00463     0.43728   
   176. BD*(   1) C   4 - H   8          0.00530     0.43864   
   177. BD*(   1) C   4 - H   9          0.00528     0.44598   
       -------------------------------
              Total Lewis   57.77774  ( 99.6168%)
        Valence non-Lewis    0.18511  (  0.3192%)
        Rydberg non-Lewis    0.03715  (  0.0641%)
       -------------------------------
            Total unit  1   58.00000  (100.0000%)
           Charge unit  1    1.00000
   1 Symmetry operations used in ECPInt.
 ECPInt:  NShTT=    2701 NPrTT=    9330 LenC2=    2685 LenP2D=    7744.
 LDataN:  DoStor=T MaxTD1= 7 Len=  274
 D1PCM: C-PCM CHGder 1st derivatives, ID1Alg=3 FixD1E=F DoIter=F DoCFld=F I1PDM=0.
 Calling FoFJK, ICntrl=      2127 FMM=F ISym2X=0 I1Cent= 0 IOpClX= 0 NMat=1 NMatS=1 NMatT=0.
 ***** Axes restored to original set *****
 -------------------------------------------------------------------
 Center     Atomic                   Forces (Hartrees/Bohr)
 Number     Number              X              Y              Z
 -------------------------------------------------------------------
      1       35           0.022475942   -0.011301205    0.011133410
      2        6          -0.046329216    0.031623764   -0.062088184
      3        6          -0.039170050    0.002656760    0.007320605
      4        6           0.021018847   -0.006945842    0.025237022
      5        1           0.022964938   -0.007685838   -0.000898167
      6        1           0.009817449    0.002430159   -0.000767982
      7        1           0.000039864    0.014248863    0.007405244
      8        1          -0.005791890    0.002083785   -0.010894706
      9        1          -0.006967671   -0.003503308    0.010202848
     10        1           0.021941788   -0.023607138    0.013349911
 -------------------------------------------------------------------
 Cartesian Forces:  Max     0.062088184 RMS     0.020789903

 GradGradGradGradGradGradGradGradGradGradGradGradGradGradGradGradGradGrad
 Berny optimization.
 FormGI is forming the generalized inverse of G from B-inverse, IUseBI=4.
 Internal  Forces:  Max     0.025945507 RMS     0.011044561
 Search for a local minimum.
 Step number   1 out of a maximum of   49
 All quantities printed in internal units (Hartrees-Bohrs-Radians)
 Mixed Optimization -- RFO/linear search
 Second derivative matrix not updated -- first step.
 ITU=  0
     Eigenvalues ---    0.00634   0.03023   0.03708   0.05797   0.05978
     Eigenvalues ---    0.05979   0.09946   0.12586   0.16000   0.16000
     Eigenvalues ---    0.16000   0.16000   0.16000   0.17389   0.18542
     Eigenvalues ---    0.20802   0.30949   0.31350   0.35668   0.35957
     Eigenvalues ---    0.37230   0.37230   0.37230   0.37231
 RFO step:  Lambda=-3.95989925D-02 EMin= 6.33649029D-03
 Linear search not attempted -- first point.
 Maximum step size (   0.300) exceeded in Quadratic search.
    -- Step size scaled by   0.889
 Iteration  1 RMS(Cart)=  0.10836368 RMS(Int)=  0.01145122
 Iteration  2 RMS(Cart)=  0.00925768 RMS(Int)=  0.00609761
 Iteration  3 RMS(Cart)=  0.00012931 RMS(Int)=  0.00609673
 Iteration  4 RMS(Cart)=  0.00000087 RMS(Int)=  0.00609673
 Variable       Old X    -DE/DX   Delta X   Delta X   Delta X     New X
                                 (Linear)    (Quad)   (Total)
    R1        3.63771   0.01642   0.00000   0.04410   0.04027   3.67799
    R2        3.59623   0.00364   0.00000   0.04418   0.04919   3.64542
    R3        2.85349  -0.00805   0.00000  -0.02430  -0.02579   2.82770
    R4        2.85349   0.00893   0.00000   0.02249   0.02249   2.87598
    R5        2.02200   0.01079   0.00000   0.02330   0.02330   2.04531
    R6        2.04150   0.00203   0.00000   0.00451   0.00451   2.04601
    R7        2.04604   0.00002   0.00000   0.00004   0.00004   2.04608
    R8        2.02199   0.01448   0.00000   0.03126   0.03126   2.05326
    R9        2.02200   0.01218   0.00000   0.02631   0.02631   2.04831
   R10        2.02202   0.01232   0.00000   0.02661   0.02661   2.04862
    A1        2.18125   0.00077   0.00000  -0.03864  -0.04340   2.13785
    A2        2.16418  -0.01723   0.00000  -0.11596  -0.12479   2.03939
    A3        1.91063   0.02039   0.00000   0.13197   0.12583   2.03646
    A4        1.91063  -0.00412   0.00000   0.06441   0.04826   1.95889
    A5        1.91063   0.01123   0.00000   0.08876   0.06788   1.97852
    A6        2.22839  -0.01780   0.00000  -0.13131  -0.13386   2.09454
    A7        1.93993  -0.00082   0.00000  -0.02282  -0.02426   1.91567
    A8        2.03766   0.01344   0.00000   0.08896   0.07911   2.11677
    A9        1.96183   0.01017   0.00000   0.07277   0.06268   2.02451
   A10        1.97596  -0.00171   0.00000   0.02356   0.01119   1.98715
   A11        1.91064   0.01014   0.00000   0.04709   0.04698   1.95761
   A12        1.91064  -0.00616   0.00000  -0.02960  -0.02938   1.88125
   A13        1.91063   0.00267   0.00000   0.01212   0.01182   1.92245
   A14        1.91064  -0.00212   0.00000  -0.00991  -0.00953   1.90111
   A15        1.91063  -0.00521   0.00000  -0.01894  -0.01950   1.89113
   A16        1.91062   0.00068   0.00000  -0.00077  -0.00074   1.90988
    D1       -2.04729  -0.02595   0.00000  -0.24305  -0.24586  -2.29315
    D2        0.27845  -0.00361   0.00000  -0.03592  -0.03452   0.24392
    D3        0.04710  -0.00222   0.00000  -0.01409  -0.01503   0.03207
    D4        2.37284   0.02012   0.00000   0.19305   0.19631   2.56915
    D5       -0.13634   0.01351   0.00000   0.15419   0.14983   0.01349
    D6        1.95807   0.01335   0.00000   0.15277   0.14806   2.10613
    D7       -2.23074   0.01205   0.00000   0.14112   0.13635  -2.09438
    D8       -1.42431   0.00277   0.00000   0.06720   0.07372  -1.35060
    D9        0.67010   0.00261   0.00000   0.06577   0.07195   0.74205
   D10        2.76448   0.00131   0.00000   0.05413   0.06024   2.82472
   D11        2.76448  -0.01156   0.00000  -0.14686  -0.14826   2.61622
   D12       -1.42429  -0.01172   0.00000  -0.14828  -0.15003  -1.57432
   D13        0.67009  -0.01302   0.00000  -0.15992  -0.16173   0.50835
         Item               Value     Threshold  Converged?
 Maximum Force            0.025946     0.000450     NO 
 RMS     Force            0.011045     0.000300     NO 
 Maximum Displacement     0.342600     0.001800     NO 
 RMS     Displacement     0.107362     0.001200     NO 
 Predicted change in Energy=-2.643894D-02
 GradGradGradGradGradGradGradGradGradGradGradGradGradGradGradGradGradGrad

                          Input orientation:                          
 ---------------------------------------------------------------------
 Center     Atomic      Atomic             Coordinates (Angstroms)
 Number     Number       Type             X           Y           Z
 ---------------------------------------------------------------------
      1         35           0        4.396000   -2.968482    3.938926
      2          6           0        2.481284   -3.294958    3.814898
      3          6           0        3.079535   -2.787989    2.540477
      4          6           0        1.453723   -2.398982    4.491314
      5          1           0        3.137116   -3.413463    1.658599
      6          1           0        2.916900   -1.739663    2.323942
      7          1           0        1.917263   -1.572636    5.023144
      8          1           0        0.803481   -2.000695    3.720968
      9          1           0        0.865605   -2.972964    5.198352
     10          1           0        2.165473   -4.327247    3.736910
 ---------------------------------------------------------------------
                    Distance matrix (angstroms):
                    1          2          3          4          5
     1  Br   0.000000
     2  C    1.946306   0.000000
     3  C    1.929071   1.496352   0.000000
     4  C    3.047368   1.521904   2.569115   0.000000
     5  H    2.642477   2.256942   1.082702   3.447790   0.000000
     6  H    2.511156   2.198103   1.082740   2.696867   1.814603
     7  H    3.044347   2.178158   2.998599   1.086537   4.024531
     8  H    3.726970   2.121076   2.682128   1.083919   3.419815
     9  H    3.748314   2.151288   3.464101   1.084085   4.228907
    10  H    2.619600   1.082331   2.153201   2.189502   2.469508
                    6          7          8          9         10
     6  H    0.000000
     7  H    2.883204   0.000000
     8  H    2.546833   1.766185   0.000000
     9  H    3.740464   1.760001   1.769697   0.000000
    10  H    3.042485   3.050228   2.695946   2.378981   0.000000
 Stoichiometry    C3H6Br(1+)
 Framework group  C1[X(C3H6Br)]
 Deg. of freedom    24
 Full point group                 C1      NOp   1
 Largest Abelian subgroup         C1      NOp   1
 Largest concise Abelian subgroup C1      NOp   1
                         Standard orientation:                         
 ---------------------------------------------------------------------
 Center     Atomic      Atomic             Coordinates (Angstroms)
 Number     Number       Type             X           Y           Z
 ---------------------------------------------------------------------
      1         35           0       -0.862578   -0.208510   -0.022514
      2          6           0        0.977806    0.115910    0.521403
      3          6           0        0.342445    1.292463   -0.150246
      4          6           0        2.164368   -0.518444   -0.189833
      5          1           0        0.131310    2.204220    0.394147
      6          1           0        0.617594    1.453966   -1.184912
      7          1           0        1.856174   -1.144581   -1.022618
      8          1           0        2.791966    0.281707   -0.565012
      9          1           0        2.732984   -1.127899    0.503333
     10          1           0        1.152491    0.290856    1.575119
 ---------------------------------------------------------------------
 Rotational constants (GHZ):          10.9637652           3.2417274           2.7677500
 Standard basis: def2TZVP (5D, 7F)
 There are   199 symmetry adapted cartesian basis functions of A   symmetry.
 There are   177 symmetry adapted basis functions of A   symmetry.
   177 basis functions,   315 primitive gaussians,   199 cartesian basis functions
    29 alpha electrons       29 beta electrons
       nuclear repulsion energy       257.4409751292 Hartrees.
 NAtoms=   10 NActive=   10 NUniq=   10 SFac= 1.00D+00 NAtFMM=   60 NAOKFM=F Big=F
 Integral buffers will be    131072 words long.
 Raffenetti 2 integral format.
 Two-electron integral symmetry is turned on.
 Nuclear repulsion after empirical dispersion term =      257.4374128132 Hartrees.
 ------------------------------------------------------------------------------
 Polarizable Continuum Model (PCM)
 =================================
 Model                : C-PCM.
 Atomic radii         : UFF (Universal Force Field).
 Polarization charges : Total charges.
 Charge compensation  : None.
 Solution method      : On-the-fly selection.
 Cavity type          : Scaled VdW (van der Waals Surface) (Alpha=1.100).
 Cavity algorithm     : GePol (No added spheres)
                        Default sphere list used, NSphG=   10.
                        Lebedev-Laikov grids with approx.  5.0 points / Ang**2.
                        Smoothing algorithm: York/Karplus (Gamma=1.0000).
                        Polarization charges: spherical gaussians, with
                                              point-specific exponents (IZeta= 3).
                        Self-potential: point-specific (ISelfS= 7).
                        Self-field    : sphere-specific E.n sum rule (ISelfD= 2).
 1st derivatives      : Analytical E(r).r(x)/FMM algorithm (CHGder, D1EAlg=3).
                        Cavity 1st derivative terms included.
 Solvent              : DiChloroEthane, Eps=  10.125000 Eps(inf)=   2.087447
 ------------------------------------------------------------------------------
 Spheres list:
 ISph  on   Nord     Re0    Alpha      Xe            Ye            Ze
    1  Br      1    2.0945  1.100     -0.862578     -0.208510     -0.022514
    2   C      2    1.9255  1.100      0.977806      0.115910      0.521403
    3   C      3    1.9255  1.100      0.342445      1.292463     -0.150246
    4   C      4    1.9255  1.100      2.164368     -0.518444     -0.189833
    5   H      5    1.4430  1.100      0.131310      2.204220      0.394147
    6   H      6    1.4430  1.100      0.617594      1.453966     -1.184912
    7   H      7    1.4430  1.100      1.856174     -1.144581     -1.022618
    8   H      8    1.4430  1.100      2.791966      0.281707     -0.565012
    9   H      9    1.4430  1.100      2.732984     -1.127899      0.503333
   10   H     10    1.4430  1.100      1.152491      0.290856      1.575119
 ------------------------------------------------------------------------------
 One-electron integrals computed using PRISM.
   1 Symmetry operations used in ECPInt.
 ECPInt:  NShTT=    2701 NPrTT=    9330 LenC2=    2685 LenP2D=    7731.
 LDataN:  DoStor=T MaxTD1= 6 Len=  172
 NBasis=   177 RedAO= T EigKep=  2.84D-04  NBF=   177
 NBsUse=   177 1.00D-06 EigRej= -1.00D+00 NBFU=   177
 Initial guess from the checkpoint file:  "c5.chk"
 B after Tr=     0.000000    0.000000    0.000000
         Rot=    0.999839    0.011578    0.000308   -0.013699 Ang=   2.06 deg.
 ExpMin= 9.52D-02 ExpMax= 5.65D+05 ExpMxC= 5.46D+03 IAcc=3 IRadAn=         5 AccDes= 0.00D+00
 Harris functional with IExCor= 4639 and IRadAn=       5 diagonalized for initial guess.
 HarFok:  IExCor= 4639 AccDes= 0.00D+00 IRadAn=         5 IDoV= 1 UseB2=F ITyADJ=14
 ICtDFT=  3500011 ScaDFX=  1.000000  1.000000  1.000000  1.000000
 FoFCou: FMM=F IPFlag=           0 FMFlag=      100000 FMFlg1=           0
         NFxFlg=           0 DoJE=T BraDBF=F KetDBF=T FulRan=T
         wScrn=  0.000000 ICntrl=       500 IOpCl=  0 I1Cent=   200000004 NGrid=           0
         NMat0=    1 NMatS0=      1 NMatT0=    0 NMatD0=    1 NMtDS0=    0 NMtDT0=    0
 Petite list used in FoFCou.
 Keep R1 ints in memory in canonical form, NReq=287941379.
 Requested convergence on RMS density matrix=1.00D-08 within 128 cycles.
 Requested convergence on MAX density matrix=1.00D-06.
 Requested convergence on             energy=1.00D-06.
 No special actions if energy rises.
 Inv3:  Mode=1 IEnd=     2952192.
 Iteration    1 A*A^-1 deviation from unit magnitude is 3.44D-15 for    981.
 Iteration    1 A*A^-1 deviation from orthogonality  is 1.65D-15 for    659    163.
 Iteration    1 A^-1*A deviation from unit magnitude is 3.66D-15 for    981.
 Iteration    1 A^-1*A deviation from orthogonality  is 1.15D-15 for    507    362.
 Error on total polarization charges =  0.00582
 SCF Done:  E(RwB97XD) =  -2691.89369287     A.U. after   12 cycles
            NFock= 12  Conv=0.29D-08     -V/T= 2.0016
   1 Symmetry operations used in ECPInt.
 ECPInt:  NShTT=    2701 NPrTT=    9330 LenC2=    2685 LenP2D=    7731.
 LDataN:  DoStor=T MaxTD1= 7 Len=  274
 D1PCM: C-PCM CHGder 1st derivatives, ID1Alg=3 FixD1E=F DoIter=F DoCFld=F I1PDM=0.
 Calling FoFJK, ICntrl=      2127 FMM=F ISym2X=0 I1Cent= 0 IOpClX= 0 NMat=1 NMatS=1 NMatT=0.
 ***** Axes restored to original set *****
 -------------------------------------------------------------------
 Center     Atomic                   Forces (Hartrees/Bohr)
 Number     Number              X              Y              Z
 -------------------------------------------------------------------
      1       35           0.021434229   -0.007024171    0.010884443
      2        6          -0.039049522    0.016681037   -0.040710594
      3        6          -0.025828400    0.005326449    0.005292947
      4        6           0.016551059   -0.005188707    0.010128027
      5        1           0.010754047   -0.006433347    0.005625112
      6        1           0.002936348    0.001344631    0.001562175
      7        1          -0.000061052    0.002801785   -0.000682979
      8        1          -0.001940486    0.000324654   -0.003183699
      9        1          -0.000072069   -0.001294975    0.001734387
     10        1           0.015275846   -0.006537355    0.009350180
 -------------------------------------------------------------------
 Cartesian Forces:  Max     0.040710594 RMS     0.013912491

 GradGradGradGradGradGradGradGradGradGradGradGradGradGradGradGradGradGrad
 Berny optimization.
 Using GEDIIS/GDIIS optimizer.
 FormGI is forming the generalized inverse of G from B-inverse, IUseBI=4.
 Internal  Forces:  Max     0.017553644 RMS     0.006143292
 Search for a local minimum.
 Step number   2 out of a maximum of   49
 All quantities printed in internal units (Hartrees-Bohrs-Radians)
 Mixed Optimization -- RFO/linear search
 Update second derivatives using D2CorX and points    1    2
 DE= -2.54D-02 DEPred=-2.64D-02 R= 9.60D-01
 TightC=F SS=  1.41D+00  RLast= 5.74D-01 DXNew= 5.0454D-01 1.7211D+00
 Trust test= 9.60D-01 RLast= 5.74D-01 DXMaxT set to 5.05D-01
 ITU=  1  0
 Use linear search instead of GDIIS.
     Eigenvalues ---    0.00635   0.02915   0.03468   0.05170   0.05681
     Eigenvalues ---    0.06064   0.09657   0.12730   0.15609   0.16000
     Eigenvalues ---    0.16000   0.16000   0.16256   0.17278   0.18779
     Eigenvalues ---    0.21199   0.30533   0.33062   0.35668   0.35971
     Eigenvalues ---    0.37190   0.37230   0.37231   0.38613
 RFO step:  Lambda=-1.26340636D-02 EMin= 6.34925565D-03
 Quartic linear search produced a step of  1.10646.
 Iteration  1 RMS(Cart)=  0.07998163 RMS(Int)=  0.02957433
 Iteration  2 RMS(Cart)=  0.02429750 RMS(Int)=  0.01631004
 Iteration  3 RMS(Cart)=  0.00133197 RMS(Int)=  0.01629004
 Iteration  4 RMS(Cart)=  0.00004207 RMS(Int)=  0.01629003
 Iteration  5 RMS(Cart)=  0.00000155 RMS(Int)=  0.01629003
 Iteration  6 RMS(Cart)=  0.00000006 RMS(Int)=  0.01629003
 Variable       Old X    -DE/DX   Delta X   Delta X   Delta X     New X
                                 (Linear)    (Quad)   (Total)
    R1        3.67799   0.01349   0.04456   0.07377   0.10670   3.78468
    R2        3.64542   0.00885   0.05443   0.07790   0.14778   3.79320
    R3        2.82770  -0.01755  -0.02854  -0.08989  -0.12381   2.70389
    R4        2.87598  -0.00821   0.02489  -0.07529  -0.05040   2.82558
    R5        2.04531   0.00110   0.02579  -0.01876   0.00703   2.05234
    R6        2.04601  -0.00030   0.00499  -0.00642  -0.00142   2.04459
    R7        2.04608   0.00056   0.00005   0.00302   0.00307   2.04915
    R8        2.05326   0.00176   0.03459  -0.02367   0.01092   2.06418
    R9        2.04831   0.00355   0.02911  -0.00897   0.02013   2.06844
   R10        2.04862   0.00186   0.02944  -0.01822   0.01122   2.05984
    A1        2.13785  -0.00116  -0.04802  -0.03803  -0.09424   2.04361
    A2        2.03939  -0.01002  -0.13808  -0.05656  -0.22232   1.81707
    A3        2.03646   0.00328   0.13923  -0.01100   0.10249   2.13895
    A4        1.95889  -0.00049   0.05340   0.07114   0.08080   2.03969
    A5        1.97852   0.00585   0.07511   0.03079   0.04353   2.02205
    A6        2.09454  -0.01153  -0.14811  -0.04487  -0.19845   1.89609
    A7        1.91567   0.00042  -0.02684   0.03159   0.00931   1.92497
    A8        2.11677  -0.00155   0.08753  -0.07377  -0.00238   2.11438
    A9        2.02451   0.00271   0.06935  -0.01242   0.03832   2.06283
   A10        1.98715   0.00319   0.01238   0.06219   0.05577   2.04293
   A11        1.95761   0.00161   0.05198  -0.03259   0.01927   1.97689
   A12        1.88125  -0.00181  -0.03251   0.00795  -0.02434   1.85691
   A13        1.92245  -0.00072   0.01308  -0.01925  -0.00661   1.91584
   A14        1.90111  -0.00025  -0.01055   0.00278  -0.00724   1.89387
   A15        1.89113   0.00021  -0.02158   0.03178   0.00951   1.90064
   A16        1.90988   0.00096  -0.00082   0.01001   0.00906   1.91894
    D1       -2.29315  -0.01199  -0.27204  -0.06203  -0.33766  -2.63081
    D2        0.24392  -0.00320  -0.03820  -0.08197  -0.11810   0.12582
    D3        0.03207  -0.00022  -0.01663   0.04989   0.03542   0.06749
    D4        2.56915   0.00857   0.21721   0.02995   0.25498   2.82413
    D5        0.01349   0.00704   0.16578   0.09515   0.24349   0.25698
    D6        2.10613   0.00652   0.16383   0.08409   0.22999   2.33612
    D7       -2.09438   0.00618   0.15087   0.08993   0.22290  -1.87148
    D8       -1.35060   0.00284   0.08156   0.08711   0.18259  -1.16801
    D9        0.74205   0.00233   0.07961   0.07605   0.16908   0.91113
   D10        2.82472   0.00199   0.06665   0.08189   0.16200   2.98672
   D11        2.61622  -0.00619  -0.16404  -0.04391  -0.20348   2.41274
   D12       -1.57432  -0.00670  -0.16600  -0.05497  -0.21699  -1.79130
   D13        0.50835  -0.00704  -0.17895  -0.04913  -0.22407   0.28428
         Item               Value     Threshold  Converged?
 Maximum Force            0.017554     0.000450     NO 
 RMS     Force            0.006143     0.000300     NO 
 Maximum Displacement     0.274113     0.001800     NO 
 RMS     Displacement     0.098484     0.001200     NO 
 Predicted change in Energy=-1.254491D-02
 GradGradGradGradGradGradGradGradGradGradGradGradGradGradGradGradGradGrad

                          Input orientation:                          
 ---------------------------------------------------------------------
 Center     Atomic      Atomic             Coordinates (Angstroms)
 Number     Number       Type             X           Y           Z
 ---------------------------------------------------------------------
      1         35           0        4.334247   -3.031427    4.002402
      2          6           0        2.368871   -3.248766    3.684381
      3          6           0        3.022948   -2.769929    2.505320
      4          6           0        1.449060   -2.394964    4.497211
      5          1           0        3.282171   -3.441255    1.697397
      6          1           0        2.934660   -1.716829    2.262358
      7          1           0        1.957087   -1.566000    4.995090
      8          1           0        0.713025   -1.982871    3.799699
      9          1           0        0.948116   -3.004771    5.249102
     10          1           0        2.206196   -4.320268    3.754569
 ---------------------------------------------------------------------
                    Distance matrix (angstroms):
                    1          2          3          4          5
     1  Br   0.000000
     2  C    2.002768   0.000000
     3  C    2.007273   1.430834   0.000000
     4  C    2.995702   1.495234   2.566194   0.000000
     5  H    2.566686   2.195285   1.081950   3.506278   0.000000
     6  H    2.591287   2.165433   1.084364   2.767932   1.847590
     7  H    2.963747   2.172378   2.963859   1.092317   4.018359
     8  H    3.775422   2.087490   2.762358   1.094573   3.625889
     9  H    3.608442   2.127540   3.447958   1.090023   4.272346
    10  H    2.500226   1.086050   2.152035   2.198083   2.482407
                    6          7          8          9         10
     6  H    0.000000
     7  H    2.906239   0.000000
     8  H    2.714749   1.774945   0.000000
     9  H    3.811272   1.775558   1.788943   0.000000
    10  H    3.087919   3.030996   2.773990   2.355191   0.000000
 Stoichiometry    C3H6Br(1+)
 Framework group  C1[X(C3H6Br)]
 Deg. of freedom    24
 Full point group                 C1      NOp   1
 Largest Abelian subgroup         C1      NOp   1
 Largest concise Abelian subgroup C1      NOp   1
                         Standard orientation:                         
 ---------------------------------------------------------------------
 Center     Atomic      Atomic             Coordinates (Angstroms)
 Number     Number       Type             X           Y           Z
 ---------------------------------------------------------------------
      1         35           0       -0.860500   -0.212943   -0.021187
      2          6           0        1.029324    0.217852    0.482857
      3          6           0        0.406790    1.338068   -0.153424
      4          6           0        2.108403   -0.582733   -0.173174
      5          1           0        0.008396    2.160462    0.425856
      6          1           0        0.649617    1.537889   -1.191187
      7          1           0        1.760982   -1.143414   -1.043857
      8          1           0        2.868174    0.133496   -0.501588
      9          1           0        2.539895   -1.279019    0.545958
     10          1           0        1.023330    0.204468    1.568808
 ---------------------------------------------------------------------
 Rotational constants (GHZ):          10.3750022           3.3014085           2.7560218
 Standard basis: def2TZVP (5D, 7F)
 There are   199 symmetry adapted cartesian basis functions of A   symmetry.
 There are   177 symmetry adapted basis functions of A   symmetry.
   177 basis functions,   315 primitive gaussians,   199 cartesian basis functions
    29 alpha electrons       29 beta electrons
       nuclear repulsion energy       255.5604026204 Hartrees.
 NAtoms=   10 NActive=   10 NUniq=   10 SFac= 1.00D+00 NAtFMM=   60 NAOKFM=F Big=F
 Integral buffers will be    131072 words long.
 Raffenetti 2 integral format.
 Two-electron integral symmetry is turned on.
 Nuclear repulsion after empirical dispersion term =      255.5569370180 Hartrees.
 ------------------------------------------------------------------------------
 Polarizable Continuum Model (PCM)
 =================================
 Model                : C-PCM.
 Atomic radii         : UFF (Universal Force Field).
 Polarization charges : Total charges.
 Charge compensation  : None.
 Solution method      : On-the-fly selection.
 Cavity type          : Scaled VdW (van der Waals Surface) (Alpha=1.100).
 Cavity algorithm     : GePol (No added spheres)
                        Default sphere list used, NSphG=   10.
                        Lebedev-Laikov grids with approx.  5.0 points / Ang**2.
                        Smoothing algorithm: York/Karplus (Gamma=1.0000).
                        Polarization charges: spherical gaussians, with
                                              point-specific exponents (IZeta= 3).
                        Self-potential: point-specific (ISelfS= 7).
                        Self-field    : sphere-specific E.n sum rule (ISelfD= 2).
 1st derivatives      : Analytical E(r).r(x)/FMM algorithm (CHGder, D1EAlg=3).
                        Cavity 1st derivative terms included.
 Solvent              : DiChloroEthane, Eps=  10.125000 Eps(inf)=   2.087447
 ------------------------------------------------------------------------------
 Spheres list:
 ISph  on   Nord     Re0    Alpha      Xe            Ye            Ze
    1  Br      1    2.0945  1.100     -0.860500     -0.212943     -0.021187
    2   C      2    1.9255  1.100      1.029324      0.217852      0.482857
    3   C      3    1.9255  1.100      0.406790      1.338068     -0.153424
    4   C      4    1.9255  1.100      2.108403     -0.582733     -0.173174
    5   H      5    1.4430  1.100      0.008396      2.160462      0.425856
    6   H      6    1.4430  1.100      0.649617      1.537889     -1.191187
    7   H      7    1.4430  1.100      1.760982     -1.143414     -1.043857
    8   H      8    1.4430  1.100      2.868174      0.133496     -0.501588
    9   H      9    1.4430  1.100      2.539895     -1.279019      0.545958
   10   H     10    1.4430  1.100      1.023330      0.204468      1.568808
 ------------------------------------------------------------------------------
 One-electron integrals computed using PRISM.
   1 Symmetry operations used in ECPInt.
 ECPInt:  NShTT=    2701 NPrTT=    9330 LenC2=    2686 LenP2D=    7728.
 LDataN:  DoStor=T MaxTD1= 6 Len=  172
 NBasis=   177 RedAO= T EigKep=  2.40D-04  NBF=   177
 NBsUse=   177 1.00D-06 EigRej= -1.00D+00 NBFU=   177
 Initial guess from the checkpoint file:  "c5.chk"
 B after Tr=    -0.000000   -0.000000    0.000000
         Rot=    0.999962    0.002687    0.002046    0.008034 Ang=   1.00 deg.
 ExpMin= 9.52D-02 ExpMax= 5.65D+05 ExpMxC= 5.46D+03 IAcc=3 IRadAn=         5 AccDes= 0.00D+00
 Harris functional with IExCor= 4639 and IRadAn=       5 diagonalized for initial guess.
 HarFok:  IExCor= 4639 AccDes= 0.00D+00 IRadAn=         5 IDoV= 1 UseB2=F ITyADJ=14
 ICtDFT=  3500011 ScaDFX=  1.000000  1.000000  1.000000  1.000000
 FoFCou: FMM=F IPFlag=           0 FMFlag=      100000 FMFlg1=           0
         NFxFlg=           0 DoJE=T BraDBF=F KetDBF=T FulRan=T
         wScrn=  0.000000 ICntrl=       500 IOpCl=  0 I1Cent=   200000004 NGrid=           0
         NMat0=    1 NMatS0=      1 NMatT0=    0 NMatD0=    1 NMtDS0=    0 NMtDT0=    0
 Petite list used in FoFCou.
 Keep R1 ints in memory in canonical form, NReq=287941379.
 Requested convergence on RMS density matrix=1.00D-08 within 128 cycles.
 Requested convergence on MAX density matrix=1.00D-06.
 Requested convergence on             energy=1.00D-06.
 No special actions if energy rises.
 Inv3:  Mode=1 IEnd=     2922507.
 Iteration    1 A*A^-1 deviation from unit magnitude is 3.89D-15 for    983.
 Iteration    1 A*A^-1 deviation from orthogonality  is 2.47D-15 for    945    429.
 Iteration    1 A^-1*A deviation from unit magnitude is 3.66D-15 for    983.
 Iteration    1 A^-1*A deviation from orthogonality  is 1.38D-15 for    554      4.
 Error on total polarization charges =  0.00589
 SCF Done:  E(RwB97XD) =  -2691.90738166     A.U. after   12 cycles
            NFock= 12  Conv=0.34D-08     -V/T= 2.0016
   1 Symmetry operations used in ECPInt.
 ECPInt:  NShTT=    2701 NPrTT=    9330 LenC2=    2686 LenP2D=    7728.
 LDataN:  DoStor=T MaxTD1= 7 Len=  274
 D1PCM: C-PCM CHGder 1st derivatives, ID1Alg=3 FixD1E=F DoIter=F DoCFld=F I1PDM=0.
 Calling FoFJK, ICntrl=      2127 FMM=F ISym2X=0 I1Cent= 0 IOpClX= 0 NMat=1 NMatS=1 NMatT=0.
 ***** Axes restored to original set *****
 -------------------------------------------------------------------
 Center     Atomic                   Forces (Hartrees/Bohr)
 Number     Number              X              Y              Z
 -------------------------------------------------------------------
      1       35           0.012343700    0.003368734   -0.000190529
      2        6          -0.020278966   -0.011061473    0.008596010
      3        6           0.006543353    0.006328888   -0.007719931
      4        6           0.000016037    0.000654329    0.002150085
      5        1          -0.000308638   -0.001266856    0.001309099
      6        1           0.002437493   -0.000357536    0.000729621
      7        1          -0.001107569   -0.000857238   -0.003511242
      8        1          -0.000700987   -0.000592119    0.002963762
      9        1           0.000801182    0.002379391   -0.001455484
     10        1           0.000254396    0.001403879   -0.002871391
 -------------------------------------------------------------------
 Cartesian Forces:  Max     0.020278966 RMS     0.005690309

 GradGradGradGradGradGradGradGradGradGradGradGradGradGradGradGradGradGrad
 Berny optimization.
 Using GEDIIS/GDIIS optimizer.
 FormGI is forming the generalized inverse of G from B-inverse, IUseBI=4.
 Internal  Forces:  Max     0.012520954 RMS     0.003254616
 Search for a local minimum.
 Step number   3 out of a maximum of   49
 All quantities printed in internal units (Hartrees-Bohrs-Radians)
 Mixed Optimization -- RFO/linear search
 Update second derivatives using D2CorX and points    2    3
 DE= -1.37D-02 DEPred=-1.25D-02 R= 1.09D+00
 TightC=F SS=  1.41D+00  RLast= 8.70D-01 DXNew= 8.4853D-01 2.6107D+00
 Trust test= 1.09D+00 RLast= 8.70D-01 DXMaxT set to 8.49D-01
 ITU=  1  1  0
 Use linear search instead of GDIIS.
     Eigenvalues ---    0.00620   0.02598   0.03236   0.04402   0.05588
     Eigenvalues ---    0.06212   0.10071   0.13795   0.15699   0.16000
     Eigenvalues ---    0.16000   0.16107   0.16299   0.17327   0.19222
     Eigenvalues ---    0.21284   0.31054   0.34106   0.35679   0.35976
     Eigenvalues ---    0.37190   0.37230   0.37233   0.38674
 RFO step:  Lambda=-3.04905026D-03 EMin= 6.19644488D-03
 Quartic linear search produced a step of -0.02055.
 Iteration  1 RMS(Cart)=  0.05013675 RMS(Int)=  0.00161998
 Iteration  2 RMS(Cart)=  0.00171676 RMS(Int)=  0.00031596
 Iteration  3 RMS(Cart)=  0.00000187 RMS(Int)=  0.00031595
 Iteration  4 RMS(Cart)=  0.00000000 RMS(Int)=  0.00031595
 Variable       Old X    -DE/DX   Delta X   Delta X   Delta X     New X
                                 (Linear)    (Quad)   (Total)
    R1        3.78468   0.01252  -0.00219   0.09381   0.09203   3.87671
    R2        3.79320  -0.00046  -0.00304  -0.00945  -0.01307   3.78013
    R3        2.70389   0.01080   0.00254   0.02715   0.02993   2.73381
    R4        2.82558   0.00157   0.00104  -0.00031   0.00072   2.82630
    R5        2.05234  -0.00161  -0.00014  -0.00407  -0.00422   2.04812
    R6        2.04459  -0.00028   0.00003  -0.00098  -0.00095   2.04364
    R7        2.04915  -0.00069  -0.00006  -0.00159  -0.00165   2.04750
    R8        2.06418  -0.00278  -0.00022  -0.00692  -0.00715   2.05703
    R9        2.06844  -0.00165  -0.00041  -0.00305  -0.00346   2.06498
   R10        2.05984  -0.00269  -0.00023  -0.00656  -0.00679   2.05305
    A1        2.04361   0.00111   0.00194  -0.01166  -0.00962   2.03399
    A2        1.81707   0.00139   0.00457  -0.00798  -0.00336   1.81371
    A3        2.13895   0.00195  -0.00211   0.00329   0.00078   2.13973
    A4        2.03969  -0.00225  -0.00166  -0.00357  -0.00499   2.03470
    A5        2.02205   0.00106  -0.00089   0.02126   0.02104   2.04309
    A6        1.89609  -0.00139   0.00408  -0.02150  -0.01711   1.87897
    A7        1.92497  -0.00240  -0.00019  -0.02612  -0.02696   1.89801
    A8        2.11438  -0.00282   0.00005  -0.02024  -0.02017   2.09421
    A9        2.06283   0.00262  -0.00079   0.01998   0.01941   2.08224
   A10        2.04293   0.00042  -0.00115   0.00637   0.00531   2.04824
   A11        1.97689  -0.00173  -0.00040  -0.00980  -0.01016   1.96672
   A12        1.85691   0.00306   0.00050   0.01542   0.01590   1.87280
   A13        1.91584   0.00142   0.00014   0.00916   0.00927   1.92512
   A14        1.89387  -0.00120   0.00015  -0.01061  -0.01042   1.88345
   A15        1.90064   0.00042  -0.00020   0.00617   0.00600   1.90664
   A16        1.91894  -0.00204  -0.00019  -0.01093  -0.01121   1.90773
    D1       -2.63081  -0.00085   0.00694  -0.03401  -0.02687  -2.65768
    D2        0.12582  -0.00008   0.00243  -0.01445  -0.01200   0.11383
    D3        0.06749   0.00129  -0.00073   0.02451   0.02335   0.09084
    D4        2.82413   0.00206  -0.00524   0.04407   0.03822   2.86235
    D5        0.25698  -0.00201  -0.00500   0.08267   0.07823   0.33521
    D6        2.33612  -0.00247  -0.00473   0.07406   0.06986   2.40598
    D7       -1.87148  -0.00238  -0.00458   0.07479   0.07081  -1.80067
    D8       -1.16801   0.00336  -0.00375   0.13242   0.12842  -1.03959
    D9        0.91113   0.00290  -0.00347   0.12382   0.12005   1.03118
   D10        2.98672   0.00299  -0.00333   0.12455   0.12099   3.10771
   D11        2.41274   0.00202   0.00418   0.08022   0.08409   2.49684
   D12       -1.79130   0.00156   0.00446   0.07161   0.07572  -1.71558
   D13        0.28428   0.00165   0.00460   0.07234   0.07667   0.36095
         Item               Value     Threshold  Converged?
 Maximum Force            0.012521     0.000450     NO 
 RMS     Force            0.003255     0.000300     NO 
 Maximum Displacement     0.129791     0.001800     NO 
 RMS     Displacement     0.050034     0.001200     NO 
 Predicted change in Energy=-1.665332D-03
 GradGradGradGradGradGradGradGradGradGradGradGradGradGradGradGradGradGrad

                          Input orientation:                          
 ---------------------------------------------------------------------
 Center     Atomic      Atomic             Coordinates (Angstroms)
 Number     Number       Type             X           Y           Z
 ---------------------------------------------------------------------
      1         35           0        4.351861   -3.044226    3.991661
      2          6           0        2.336682   -3.258756    3.672998
      3          6           0        3.038121   -2.760033    2.510193
      4          6           0        1.434165   -2.399152    4.499684
      5          1           0        3.299497   -3.434353    1.706136
      6          1           0        2.997034   -1.702220    2.279339
      7          1           0        1.948005   -1.539629    4.926408
      8          1           0        0.646459   -2.026555    3.840309
      9          1           0        0.986844   -2.982382    5.299729
     10          1           0        2.177713   -4.329774    3.721074
 ---------------------------------------------------------------------
                    Distance matrix (angstroms):
                    1          2          3          4          5
     1  Br   0.000000
     2  C    2.051466   0.000000
     3  C    2.000356   1.446671   0.000000
     4  C    3.031032   1.495615   2.580888   0.000000
     5  H    2.546231   2.196905   1.081449   3.514970   0.000000
     6  H    2.562924   2.191154   1.083490   2.803249   1.849414
     7  H    2.985982   2.162754   2.918191   1.088533   3.973243
     8  H    3.845590   2.098372   2.833240   1.092742   3.684454
     9  H    3.610846   2.131830   3.469681   1.086428   4.297273
    10  H    2.540230   1.083819   2.161162   2.210520   2.473895
                    6          7          8          9         10
     6  H    0.000000
     7  H    2.851994   0.000000
     8  H    2.840251   1.763726   0.000000
     9  H    3.847393   1.773340   1.777462   0.000000
    10  H    3.107078   3.048033   2.768352   2.392862   0.000000
 Stoichiometry    C3H6Br(1+)
 Framework group  C1[X(C3H6Br)]
 Deg. of freedom    24
 Full point group                 C1      NOp   1
 Largest Abelian subgroup         C1      NOp   1
 Largest concise Abelian subgroup C1      NOp   1
                         Standard orientation:                         
 ---------------------------------------------------------------------
 Center     Atomic      Atomic             Coordinates (Angstroms)
 Number     Number       Type             X           Y           Z
 ---------------------------------------------------------------------
      1         35           0       -0.870025   -0.215117   -0.018857
      2          6           0        1.066574    0.229077    0.491822
      3          6           0        0.392919    1.329472   -0.162530
      4          6           0        2.135425   -0.574317   -0.178239
      5          1           0       -0.013283    2.141118    0.425486
      6          1           0        0.588402    1.523152   -1.210493
      7          1           0        1.786743   -1.061913   -1.086850
      8          1           0        2.936556    0.115995   -0.453453
      9          1           0        2.526211   -1.324636    0.503401
     10          1           0        1.056730    0.229973    1.575595
 ---------------------------------------------------------------------
 Rotational constants (GHZ):          10.4236951           3.2154193           2.7055554
 Standard basis: def2TZVP (5D, 7F)
 There are   199 symmetry adapted cartesian basis functions of A   symmetry.
 There are   177 symmetry adapted basis functions of A   symmetry.
   177 basis functions,   315 primitive gaussians,   199 cartesian basis functions
    29 alpha electrons       29 beta electrons
       nuclear repulsion energy       253.6462606406 Hartrees.
 NAtoms=   10 NActive=   10 NUniq=   10 SFac= 1.00D+00 NAtFMM=   60 NAOKFM=F Big=F
 Integral buffers will be    131072 words long.
 Raffenetti 2 integral format.
 Two-electron integral symmetry is turned on.
 Nuclear repulsion after empirical dispersion term =      253.6428034237 Hartrees.
 ------------------------------------------------------------------------------
 Polarizable Continuum Model (PCM)
 =================================
 Model                : C-PCM.
 Atomic radii         : UFF (Universal Force Field).
 Polarization charges : Total charges.
 Charge compensation  : None.
 Solution method      : On-the-fly selection.
 Cavity type          : Scaled VdW (van der Waals Surface) (Alpha=1.100).
 Cavity algorithm     : GePol (No added spheres)
                        Default sphere list used, NSphG=   10.
                        Lebedev-Laikov grids with approx.  5.0 points / Ang**2.
                        Smoothing algorithm: York/Karplus (Gamma=1.0000).
                        Polarization charges: spherical gaussians, with
                                              point-specific exponents (IZeta= 3).
                        Self-potential: point-specific (ISelfS= 7).
                        Self-field    : sphere-specific E.n sum rule (ISelfD= 2).
 1st derivatives      : Analytical E(r).r(x)/FMM algorithm (CHGder, D1EAlg=3).
                        Cavity 1st derivative terms included.
 Solvent              : DiChloroEthane, Eps=  10.125000 Eps(inf)=   2.087447
 ------------------------------------------------------------------------------
 Spheres list:
 ISph  on   Nord     Re0    Alpha      Xe            Ye            Ze
    1  Br      1    2.0945  1.100     -0.870025     -0.215117     -0.018857
    2   C      2    1.9255  1.100      1.066574      0.229077      0.491822
    3   C      3    1.9255  1.100      0.392919      1.329472     -0.162530
    4   C      4    1.9255  1.100      2.135425     -0.574317     -0.178239
    5   H      5    1.4430  1.100     -0.013283      2.141118      0.425486
    6   H      6    1.4430  1.100      0.588402      1.523152     -1.210493
    7   H      7    1.4430  1.100      1.786743     -1.061913     -1.086850
    8   H      8    1.4430  1.100      2.936556      0.115995     -0.453453
    9   H      9    1.4430  1.100      2.526211     -1.324636      0.503401
   10   H     10    1.4430  1.100      1.056730      0.229973      1.575595
 ------------------------------------------------------------------------------
 One-electron integrals computed using PRISM.
   1 Symmetry operations used in ECPInt.
 ECPInt:  NShTT=    2701 NPrTT=    9330 LenC2=    2685 LenP2D=    7717.
 LDataN:  DoStor=T MaxTD1= 6 Len=  172
 NBasis=   177 RedAO= T EigKep=  2.61D-04  NBF=   177
 NBsUse=   177 1.00D-06 EigRej= -1.00D+00 NBFU=   177
 Initial guess from the checkpoint file:  "c5.chk"
 B after Tr=     0.000000    0.000000   -0.000000
         Rot=    0.999996   -0.000600   -0.001707   -0.002087 Ang=  -0.32 deg.
 ExpMin= 9.52D-02 ExpMax= 5.65D+05 ExpMxC= 5.46D+03 IAcc=3 IRadAn=         5 AccDes= 0.00D+00
 Harris functional with IExCor= 4639 and IRadAn=       5 diagonalized for initial guess.
 HarFok:  IExCor= 4639 AccDes= 0.00D+00 IRadAn=         5 IDoV= 1 UseB2=F ITyADJ=14
 ICtDFT=  3500011 ScaDFX=  1.000000  1.000000  1.000000  1.000000
 FoFCou: FMM=F IPFlag=           0 FMFlag=      100000 FMFlg1=           0
         NFxFlg=           0 DoJE=T BraDBF=F KetDBF=T FulRan=T
         wScrn=  0.000000 ICntrl=       500 IOpCl=  0 I1Cent=   200000004 NGrid=           0
         NMat0=    1 NMatS0=      1 NMatT0=    0 NMatD0=    1 NMtDS0=    0 NMtDT0=    0
 Petite list used in FoFCou.
 Keep R1 ints in memory in canonical form, NReq=287941379.
 Requested convergence on RMS density matrix=1.00D-08 within 128 cycles.
 Requested convergence on MAX density matrix=1.00D-06.
 Requested convergence on             energy=1.00D-06.
 No special actions if energy rises.
 Inv3:  Mode=1 IEnd=     2988012.
 Iteration    1 A*A^-1 deviation from unit magnitude is 3.66D-15 for    971.
 Iteration    1 A*A^-1 deviation from orthogonality  is 1.53D-15 for    621     62.
 Iteration    1 A^-1*A deviation from unit magnitude is 3.44D-15 for    971.
 Iteration    1 A^-1*A deviation from orthogonality  is 1.43D-15 for    992    991.
 Error on total polarization charges =  0.00591
 SCF Done:  E(RwB97XD) =  -2691.90949033     A.U. after   11 cycles
            NFock= 11  Conv=0.49D-08     -V/T= 2.0016
   1 Symmetry operations used in ECPInt.
 ECPInt:  NShTT=    2701 NPrTT=    9330 LenC2=    2685 LenP2D=    7717.
 LDataN:  DoStor=T MaxTD1= 7 Len=  274
 D1PCM: C-PCM CHGder 1st derivatives, ID1Alg=3 FixD1E=F DoIter=F DoCFld=F I1PDM=0.
 Calling FoFJK, ICntrl=      2127 FMM=F ISym2X=0 I1Cent= 0 IOpClX= 0 NMat=1 NMatS=1 NMatT=0.
 ***** Axes restored to original set *****
 -------------------------------------------------------------------
 Center     Atomic                   Forces (Hartrees/Bohr)
 Number     Number              X              Y              Z
 -------------------------------------------------------------------
      1       35           0.004237383    0.000559196    0.001468803
      2        6          -0.009719539    0.000812823    0.000154020
      3        6           0.004051649    0.001108468    0.000705555
      4        6           0.003289634   -0.001847708    0.001180155
      5        1          -0.001272893   -0.000547909   -0.000087967
      6        1          -0.000832973   -0.000565712    0.000326328
      7        1          -0.000065313    0.000963930   -0.001876992
      8        1          -0.000362644   -0.001144629   -0.000314173
      9        1           0.000427998    0.000504288    0.000259709
     10        1           0.000246699    0.000157251   -0.001815437
 -------------------------------------------------------------------
 Cartesian Forces:  Max     0.009719539 RMS     0.002325812

 GradGradGradGradGradGradGradGradGradGradGradGradGradGradGradGradGradGrad
 Berny optimization.
 Using GEDIIS/GDIIS optimizer.
 FormGI is forming the generalized inverse of G from B-inverse, IUseBI=4.
 Internal  Forces:  Max     0.003844071 RMS     0.001120716
 Search for a local minimum.
 Step number   4 out of a maximum of   49
 All quantities printed in internal units (Hartrees-Bohrs-Radians)
 Mixed Optimization -- RFO/linear search
 Update second derivatives using D2CorX and points    3    4
 DE= -2.11D-03 DEPred=-1.67D-03 R= 1.27D+00
 TightC=F SS=  1.41D+00  RLast= 3.10D-01 DXNew= 1.4270D+00 9.2902D-01
 Trust test= 1.27D+00 RLast= 3.10D-01 DXMaxT set to 9.29D-01
 ITU=  1  1  1  0
 Use linear search instead of GDIIS.
     Eigenvalues ---    0.00424   0.02484   0.03169   0.04556   0.05514
     Eigenvalues ---    0.06120   0.09857   0.12768   0.15752   0.15942
     Eigenvalues ---    0.16001   0.16167   0.16649   0.17660   0.19089
     Eigenvalues ---    0.21334   0.30424   0.35656   0.35966   0.37157
     Eigenvalues ---    0.37193   0.37228   0.37784   0.40054
 RFO step:  Lambda=-1.56903859D-03 EMin= 4.23562282D-03
 Quartic linear search produced a step of  0.65922.
 Iteration  1 RMS(Cart)=  0.08303707 RMS(Int)=  0.00849632
 Iteration  2 RMS(Cart)=  0.00824819 RMS(Int)=  0.00045287
 Iteration  3 RMS(Cart)=  0.00005877 RMS(Int)=  0.00044964
 Iteration  4 RMS(Cart)=  0.00000001 RMS(Int)=  0.00044964
 Variable       Old X    -DE/DX   Delta X   Delta X   Delta X     New X
                                 (Linear)    (Quad)   (Total)
    R1        3.87671   0.00384   0.06067   0.03034   0.09139   3.96810
    R2        3.78013   0.00083  -0.00862   0.00421  -0.00491   3.77521
    R3        2.73381  -0.00006   0.01973  -0.01073   0.00914   2.74295
    R4        2.82630  -0.00332   0.00048  -0.01753  -0.01706   2.80924
    R5        2.04812  -0.00027  -0.00278   0.00070  -0.00208   2.04604
    R6        2.04364   0.00008  -0.00062   0.00065   0.00002   2.04367
    R7        2.04750  -0.00056  -0.00109  -0.00197  -0.00306   2.04444
    R8        2.05703  -0.00003  -0.00471   0.00274  -0.00197   2.05506
    R9        2.06498   0.00005  -0.00228   0.00237   0.00009   2.06507
   R10        2.05305  -0.00023  -0.00448   0.00168  -0.00280   2.05025
    A1        2.03399  -0.00063  -0.00634  -0.01559  -0.02159   2.01240
    A2        1.81371   0.00009  -0.00222  -0.01401  -0.01649   1.79722
    A3        2.13973   0.00008   0.00051   0.00372   0.00277   2.14249
    A4        2.03470  -0.00119  -0.00329  -0.00462  -0.00884   2.02586
    A5        2.04309   0.00136   0.01387   0.01394   0.02731   2.07040
    A6        1.87897   0.00052  -0.01128   0.01217   0.00157   1.88054
    A7        1.89801  -0.00050  -0.01777   0.01476  -0.00361   1.89440
    A8        2.09421  -0.00103  -0.01330  -0.00961  -0.02332   2.07089
    A9        2.08224  -0.00048   0.01280  -0.01237   0.00023   2.08247
   A10        2.04824   0.00088   0.00350   0.00523   0.00841   2.05665
   A11        1.96672  -0.00054  -0.00670   0.00041  -0.00637   1.96035
   A12        1.87280  -0.00114   0.01048  -0.02081  -0.01039   1.86241
   A13        1.92512   0.00077   0.00611   0.00912   0.01519   1.94031
   A14        1.88345   0.00035  -0.00687  -0.00147  -0.00845   1.87501
   A15        1.90664   0.00046   0.00395   0.01064   0.01453   1.92118
   A16        1.90773   0.00007  -0.00739   0.00135  -0.00605   1.90168
    D1       -2.65768   0.00035  -0.01771   0.00047  -0.01707  -2.67475
    D2        0.11383  -0.00138  -0.00791  -0.04934  -0.05693   0.05689
    D3        0.09084   0.00136   0.01539   0.04079   0.05531   0.14615
    D4        2.86235  -0.00037   0.02519  -0.00903   0.01545   2.87779
    D5        0.33521   0.00055   0.05157   0.14578   0.19779   0.53301
    D6        2.40598  -0.00006   0.04605   0.13075   0.17729   2.58327
    D7       -1.80067  -0.00022   0.04668   0.12510   0.17222  -1.62845
    D8       -1.03959   0.00185   0.08466   0.16017   0.24487  -0.79472
    D9        1.03118   0.00123   0.07914   0.14514   0.22437   1.25555
   D10        3.10771   0.00107   0.07976   0.13949   0.21930  -2.95618
   D11        2.49684   0.00137   0.05544   0.12358   0.17849   2.67532
   D12       -1.71558   0.00076   0.04992   0.10855   0.15798  -1.55760
   D13        0.36095   0.00060   0.05054   0.10290   0.15291   0.51386
         Item               Value     Threshold  Converged?
 Maximum Force            0.003844     0.000450     NO 
 RMS     Force            0.001121     0.000300     NO 
 Maximum Displacement     0.261490     0.001800     NO 
 RMS     Displacement     0.088423     0.001200     NO 
 Predicted change in Energy=-1.204704D-03
 GradGradGradGradGradGradGradGradGradGradGradGradGradGradGradGradGradGrad

                          Input orientation:                          
 ---------------------------------------------------------------------
 Center     Atomic      Atomic             Coordinates (Angstroms)
 Number     Number       Type             X           Y           Z
 ---------------------------------------------------------------------
      1         35           0        4.356054   -3.101346    4.014538
      2          6           0        2.294861   -3.262260    3.647294
      3          6           0        3.065496   -2.742761    2.532342
      4          6           0        1.429156   -2.402542    4.496637
      5          1           0        3.308702   -3.408209    1.715281
      6          1           0        3.057662   -1.679495    2.332717
      7          1           0        1.923315   -1.478678    4.788033
      8          1           0        0.561918   -2.132360    3.889112
      9          1           0        1.089640   -2.937164    5.377558
     10          1           0        2.129578   -4.332267    3.654017
 ---------------------------------------------------------------------
                    Distance matrix (angstroms):
                    1          2          3          4          5
     1  Br   0.000000
     2  C    2.099828   0.000000
     3  C    1.997756   1.451508   0.000000
     4  C    3.047536   1.486588   2.579111   0.000000
     5  H    2.545131   2.186744   1.081461   3.504283   0.000000
     6  H    2.556561   2.194339   1.081872   2.803102   1.852755
     7  H    3.024825   2.149534   2.826770   1.087488   3.883837
     8  H    3.917925   2.082845   2.912270   1.092789   3.728023
     9  H    3.543196   2.133555   3.469446   1.084948   4.307945
    10  H    2.569501   1.082718   2.158849   2.219108   2.450084
                    6          7          8          9         10
     6  H    0.000000
     7  H    2.712130   0.000000
     8  H    2.975935   1.757488   0.000000
     9  H    3.837434   1.780375   1.772476   0.000000
    10  H    3.105539   3.077582   2.711535   2.449158   0.000000
 Stoichiometry    C3H6Br(1+)
 Framework group  C1[X(C3H6Br)]
 Deg. of freedom    24
 Full point group                 C1      NOp   1
 Largest Abelian subgroup         C1      NOp   1
 Largest concise Abelian subgroup C1      NOp   1
                         Standard orientation:                         
 ---------------------------------------------------------------------
 Center     Atomic      Atomic             Coordinates (Angstroms)
 Number     Number       Type             X           Y           Z
 ---------------------------------------------------------------------
      1         35           0       -0.879626   -0.212863   -0.016231
      2          6           0        1.105420    0.241722    0.495847
      3          6           0        0.396033    1.316471   -0.173899
      4          6           0        2.140892   -0.582800   -0.180840
      5          1           0        0.008309    2.131868    0.421380
      6          1           0        0.583230    1.501529   -1.223260
      7          1           0        1.828622   -0.907182   -1.170736
      8          1           0        3.018175    0.056368   -0.307431
      9          1           0        2.414568   -1.441409    0.423317
     10          1           0        1.079916    0.256654    1.578162
 ---------------------------------------------------------------------
 Rotational constants (GHZ):          10.4751496           3.1576978           2.6718203
 Standard basis: def2TZVP (5D, 7F)
 There are   199 symmetry adapted cartesian basis functions of A   symmetry.
 There are   177 symmetry adapted basis functions of A   symmetry.
   177 basis functions,   315 primitive gaussians,   199 cartesian basis functions
    29 alpha electrons       29 beta electrons
       nuclear repulsion energy       252.2219343979 Hartrees.
 NAtoms=   10 NActive=   10 NUniq=   10 SFac= 1.00D+00 NAtFMM=   60 NAOKFM=F Big=F
 Integral buffers will be    131072 words long.
 Raffenetti 2 integral format.
 Two-electron integral symmetry is turned on.
 Nuclear repulsion after empirical dispersion term =      252.2184509093 Hartrees.
 ------------------------------------------------------------------------------
 Polarizable Continuum Model (PCM)
 =================================
 Model                : C-PCM.
 Atomic radii         : UFF (Universal Force Field).
 Polarization charges : Total charges.
 Charge compensation  : None.
 Solution method      : On-the-fly selection.
 Cavity type          : Scaled VdW (van der Waals Surface) (Alpha=1.100).
 Cavity algorithm     : GePol (No added spheres)
                        Default sphere list used, NSphG=   10.
                        Lebedev-Laikov grids with approx.  5.0 points / Ang**2.
                        Smoothing algorithm: York/Karplus (Gamma=1.0000).
                        Polarization charges: spherical gaussians, with
                                              point-specific exponents (IZeta= 3).
                        Self-potential: point-specific (ISelfS= 7).
                        Self-field    : sphere-specific E.n sum rule (ISelfD= 2).
 1st derivatives      : Analytical E(r).r(x)/FMM algorithm (CHGder, D1EAlg=3).
                        Cavity 1st derivative terms included.
 Solvent              : DiChloroEthane, Eps=  10.125000 Eps(inf)=   2.087447
 ------------------------------------------------------------------------------
 Spheres list:
 ISph  on   Nord     Re0    Alpha      Xe            Ye            Ze
    1  Br      1    2.0945  1.100     -0.879626     -0.212863     -0.016231
    2   C      2    1.9255  1.100      1.105420      0.241722      0.495847
    3   C      3    1.9255  1.100      0.396033      1.316471     -0.173899
    4   C      4    1.9255  1.100      2.140892     -0.582800     -0.180840
    5   H      5    1.4430  1.100      0.008309      2.131868      0.421380
    6   H      6    1.4430  1.100      0.583230      1.501529     -1.223260
    7   H      7    1.4430  1.100      1.828622     -0.907182     -1.170736
    8   H      8    1.4430  1.100      3.018175      0.056368     -0.307431
    9   H      9    1.4430  1.100      2.414568     -1.441409      0.423317
   10   H     10    1.4430  1.100      1.079916      0.256654      1.578162
 ------------------------------------------------------------------------------
 One-electron integrals computed using PRISM.
   1 Symmetry operations used in ECPInt.
 ECPInt:  NShTT=    2701 NPrTT=    9330 LenC2=    2686 LenP2D=    7712.
 LDataN:  DoStor=T MaxTD1= 6 Len=  172
 NBasis=   177 RedAO= T EigKep=  2.68D-04  NBF=   177
 NBsUse=   177 1.00D-06 EigRej= -1.00D+00 NBFU=   177
 Initial guess from the checkpoint file:  "c5.chk"
 B after Tr=    -0.000000   -0.000000    0.000000
         Rot=    0.999993   -0.002616   -0.000378    0.002794 Ang=  -0.44 deg.
 ExpMin= 9.52D-02 ExpMax= 5.65D+05 ExpMxC= 5.46D+03 IAcc=3 IRadAn=         5 AccDes= 0.00D+00
 Harris functional with IExCor= 4639 and IRadAn=       5 diagonalized for initial guess.
 HarFok:  IExCor= 4639 AccDes= 0.00D+00 IRadAn=         5 IDoV= 1 UseB2=F ITyADJ=14
 ICtDFT=  3500011 ScaDFX=  1.000000  1.000000  1.000000  1.000000
 FoFCou: FMM=F IPFlag=           0 FMFlag=      100000 FMFlg1=           0
         NFxFlg=           0 DoJE=T BraDBF=F KetDBF=T FulRan=T
         wScrn=  0.000000 ICntrl=       500 IOpCl=  0 I1Cent=   200000004 NGrid=           0
         NMat0=    1 NMatS0=      1 NMatT0=    0 NMatD0=    1 NMtDS0=    0 NMtDT0=    0
 Petite list used in FoFCou.
 Keep R1 ints in memory in canonical form, NReq=287941379.
 Requested convergence on RMS density matrix=1.00D-08 within 128 cycles.
 Requested convergence on MAX density matrix=1.00D-06.
 Requested convergence on             energy=1.00D-06.
 No special actions if energy rises.
 Inv3:  Mode=1 IEnd=     2922507.
 Iteration    1 A*A^-1 deviation from unit magnitude is 3.33D-15 for    967.
 Iteration    1 A*A^-1 deviation from orthogonality  is 1.28D-15 for    599    119.
 Iteration    1 A^-1*A deviation from unit magnitude is 3.55D-15 for    967.
 Iteration    1 A^-1*A deviation from orthogonality  is 1.23D-15 for    759    396.
 Error on total polarization charges =  0.00593
 SCF Done:  E(RwB97XD) =  -2691.91115568     A.U. after   11 cycles
            NFock= 11  Conv=0.48D-08     -V/T= 2.0016
   1 Symmetry operations used in ECPInt.
 ECPInt:  NShTT=    2701 NPrTT=    9330 LenC2=    2686 LenP2D=    7712.
 LDataN:  DoStor=T MaxTD1= 7 Len=  274
 D1PCM: C-PCM CHGder 1st derivatives, ID1Alg=3 FixD1E=F DoIter=F DoCFld=F I1PDM=0.
 Calling FoFJK, ICntrl=      2127 FMM=F ISym2X=0 I1Cent= 0 IOpClX= 0 NMat=1 NMatS=1 NMatT=0.
 ***** Axes restored to original set *****
 -------------------------------------------------------------------
 Center     Atomic                   Forces (Hartrees/Bohr)
 Number     Number              X              Y              Z
 -------------------------------------------------------------------
      1       35          -0.001156318   -0.000515913    0.000448258
      2        6          -0.000175421    0.004671785   -0.001595804
      3        6           0.000898313   -0.002264033    0.003524424
      4        6           0.003937881   -0.001550368    0.000663984
      5        1          -0.000301516    0.000609119   -0.000739062
      6        1          -0.000992966    0.000214031   -0.000270272
      7        1           0.000184580    0.001174076   -0.001076949
      8        1          -0.001219063   -0.001598340   -0.001336427
      9        1           0.000061603   -0.000328826    0.000817583
     10        1          -0.001237094   -0.000411531   -0.000435734
 -------------------------------------------------------------------
 Cartesian Forces:  Max     0.004671785 RMS     0.001592640

 GradGradGradGradGradGradGradGradGradGradGradGradGradGradGradGradGradGrad
 Berny optimization.
 Using GEDIIS/GDIIS optimizer.
 FormGI is forming the generalized inverse of G from B-inverse, IUseBI=4.
 Internal  Forces:  Max     0.003628398 RMS     0.001032034
 Search for a local minimum.
 Step number   5 out of a maximum of   49
 All quantities printed in internal units (Hartrees-Bohrs-Radians)
 Mixed Optimization -- RFO/linear search
 Update second derivatives using D2CorX and points    4    5
 DE= -1.67D-03 DEPred=-1.20D-03 R= 1.38D+00
 TightC=F SS=  1.41D+00  RLast= 5.98D-01 DXNew= 1.5624D+00 1.7933D+00
 Trust test= 1.38D+00 RLast= 5.98D-01 DXMaxT set to 1.56D+00
 ITU=  1  1  1  1  0
 Use linear search instead of GDIIS.
     Eigenvalues ---    0.00182   0.02533   0.03195   0.04633   0.05373
     Eigenvalues ---    0.06226   0.10583   0.13730   0.15867   0.15915
     Eigenvalues ---    0.16027   0.16229   0.16622   0.18445   0.19049
     Eigenvalues ---    0.21461   0.30328   0.35698   0.35965   0.37188
     Eigenvalues ---    0.37223   0.37262   0.38463   0.40441
 RFO step:  Lambda=-7.51506060D-04 EMin= 1.82141385D-03
 Quartic linear search produced a step of  0.87207.
 Iteration  1 RMS(Cart)=  0.09130228 RMS(Int)=  0.03090270
 Iteration  2 RMS(Cart)=  0.02977390 RMS(Int)=  0.00079709
 Iteration  3 RMS(Cart)=  0.00072485 RMS(Int)=  0.00043180
 Iteration  4 RMS(Cart)=  0.00000058 RMS(Int)=  0.00043180
 Variable       Old X    -DE/DX   Delta X   Delta X   Delta X     New X
                                 (Linear)    (Quad)   (Total)
    R1        3.96810  -0.00098   0.07970  -0.01080   0.06915   4.03725
    R2        3.77521  -0.00007  -0.00429  -0.00270  -0.00728   3.76793
    R3        2.74295  -0.00270   0.00797  -0.00783   0.00017   2.74313
    R4        2.80924  -0.00363  -0.01488  -0.01160  -0.02648   2.78277
    R5        2.04604   0.00059  -0.00181   0.00241   0.00059   2.04663
    R6        2.04367   0.00010   0.00002   0.00016   0.00018   2.04384
    R7        2.04444   0.00030  -0.00267   0.00214  -0.00052   2.04392
    R8        2.05506   0.00077  -0.00172   0.00210   0.00038   2.05544
    R9        2.06507   0.00130   0.00008   0.00513   0.00520   2.07028
   R10        2.05025   0.00083  -0.00244   0.00280   0.00036   2.05061
    A1        2.01240  -0.00032  -0.01883   0.00254  -0.01594   1.99646
    A2        1.79722   0.00014  -0.01438   0.00463  -0.00974   1.78748
    A3        2.14249  -0.00037   0.00241  -0.00073   0.00034   2.14283
    A4        2.02586   0.00064  -0.00771   0.00788  -0.00090   2.02496
    A5        2.07040  -0.00030   0.02382  -0.00910   0.01401   2.08442
    A6        1.88054   0.00057   0.00137   0.00346   0.00538   1.88592
    A7        1.89440   0.00027  -0.00315   0.00490   0.00158   1.89598
    A8        2.07089   0.00109  -0.02034   0.01247  -0.00846   2.06243
    A9        2.08247  -0.00122   0.00020  -0.00819  -0.00847   2.07400
   A10        2.05665  -0.00025   0.00734  -0.00620   0.00057   2.05722
   A11        1.96035  -0.00003  -0.00556   0.00308  -0.00277   1.95758
   A12        1.86241  -0.00218  -0.00906  -0.01792  -0.02709   1.83533
   A13        1.94031   0.00027   0.01325   0.00179   0.01492   1.95522
   A14        1.87501   0.00099  -0.00736   0.00773   0.00005   1.87506
   A15        1.92118   0.00045   0.01267   0.00921   0.02161   1.94279
   A16        1.90168   0.00046  -0.00528  -0.00484  -0.01001   1.89167
    D1       -2.67475   0.00050  -0.01488   0.00531  -0.00949  -2.68424
    D2        0.05689  -0.00057  -0.04965  -0.00122  -0.05041   0.00649
    D3        0.14615   0.00032   0.04823  -0.00310   0.04435   0.19050
    D4        2.87779  -0.00074   0.01347  -0.00963   0.00344   2.88123
    D5        0.53301   0.00124   0.17249   0.09751   0.27025   0.80326
    D6        2.58327   0.00108   0.15461   0.09750   0.25249   2.83576
    D7       -1.62845   0.00046   0.15019   0.08180   0.23216  -1.39629
    D8       -0.79472   0.00085   0.21355   0.09275   0.30646  -0.48825
    D9        1.25555   0.00069   0.19566   0.09274   0.28870   1.54425
   D10       -2.95618   0.00007   0.19125   0.07704   0.26837  -2.68781
   D11        2.67532   0.00087   0.15565   0.09837   0.25356   2.92888
   D12       -1.55760   0.00071   0.13777   0.09836   0.23580  -1.32180
   D13        0.51386   0.00009   0.13335   0.08266   0.21546   0.72933
         Item               Value     Threshold  Converged?
 Maximum Force            0.003628     0.000450     NO 
 RMS     Force            0.001032     0.000300     NO 
 Maximum Displacement     0.343063     0.001800     NO 
 RMS     Displacement     0.118874     0.001200     NO 
 Predicted change in Energy=-1.111567D-03
 GradGradGradGradGradGradGradGradGradGradGradGradGradGradGradGradGradGrad

                          Input orientation:                          
 ---------------------------------------------------------------------
 Center     Atomic      Atomic             Coordinates (Angstroms)
 Number     Number       Type             X           Y           Z
 ---------------------------------------------------------------------
      1         35           0        4.347729   -3.195301    4.043926
      2          6           0        2.254908   -3.256968    3.618965
      3          6           0        3.097626   -2.725157    2.563433
      4          6           0        1.432118   -2.400705    4.489777
      5          1           0        3.322560   -3.363044    1.719475
      6          1           0        3.129610   -1.654844    2.410935
      7          1           0        1.856473   -1.406034    4.606492
      8          1           0        0.477412   -2.290591    3.963824
      9          1           0        1.241099   -2.863482    5.452520
     10          1           0        2.056845   -4.320954    3.578184
 ---------------------------------------------------------------------
                    Distance matrix (angstroms):
                    1          2          3          4          5
     1  Br   0.000000
     2  C    2.136421   0.000000
     3  C    1.993904   1.451600   0.000000
     4  C    3.054661   1.472577   2.567096   0.000000
     5  H    2.546013   2.181558   1.081555   3.489189   0.000000
     6  H    2.554110   2.188890   1.081595   2.785564   1.852915
     7  H    3.118383   2.135396   2.730317   1.087690   3.783407
     8  H    3.975458   2.052389   3.002575   1.095543   3.779169
     9  H    3.427155   2.131798   3.436953   1.085139   4.303216
    10  H    2.594640   1.083032   2.158590   2.215545   2.444263
                    6          7          8          9         10
     6  H    0.000000
     7  H    2.550148   0.000000
     8  H    3.138437   1.759907   0.000000
     9  H    3.778692   1.794046   1.768513   0.000000
    10  H    3.101843   3.097471   2.601096   2.510539   0.000000
 Stoichiometry    C3H6Br(1+)
 Framework group  C1[X(C3H6Br)]
 Deg. of freedom    24
 Full point group                 C1      NOp   1
 Largest Abelian subgroup         C1      NOp   1
 Largest concise Abelian subgroup C1      NOp   1
                         Standard orientation:                         
 ---------------------------------------------------------------------
 Center     Atomic      Atomic             Coordinates (Angstroms)
 Number     Number       Type             X           Y           Z
 ---------------------------------------------------------------------
      1         35           0       -0.887602   -0.209044   -0.014348
      2          6           0        1.136498    0.245985    0.495811
      3          6           0        0.403258    1.301689   -0.178720
      4          6           0        2.138280   -0.590301   -0.186496
      5          1           0        0.032293    2.125738    0.415492
      6          1           0        0.593878    1.480685   -1.228230
      7          1           0        1.934909   -0.688276   -1.250503
      8          1           0        3.083992   -0.047282   -0.081740
      9          1           0        2.247151   -1.561418    0.285313
     10          1           0        1.105642    0.262867    1.578271
 ---------------------------------------------------------------------
 Rotational constants (GHZ):          10.5774001           3.1190480           2.6521411
 Standard basis: def2TZVP (5D, 7F)
 There are   199 symmetry adapted cartesian basis functions of A   symmetry.
 There are   177 symmetry adapted basis functions of A   symmetry.
   177 basis functions,   315 primitive gaussians,   199 cartesian basis functions
    29 alpha electrons       29 beta electrons
       nuclear repulsion energy       251.4217786197 Hartrees.
 NAtoms=   10 NActive=   10 NUniq=   10 SFac= 1.00D+00 NAtFMM=   60 NAOKFM=F Big=F
 Integral buffers will be    131072 words long.
 Raffenetti 2 integral format.
 Two-electron integral symmetry is turned on.
 Nuclear repulsion after empirical dispersion term =      251.4182549368 Hartrees.
 ------------------------------------------------------------------------------
 Polarizable Continuum Model (PCM)
 =================================
 Model                : C-PCM.
 Atomic radii         : UFF (Universal Force Field).
 Polarization charges : Total charges.
 Charge compensation  : None.
 Solution method      : On-the-fly selection.
 Cavity type          : Scaled VdW (van der Waals Surface) (Alpha=1.100).
 Cavity algorithm     : GePol (No added spheres)
                        Default sphere list used, NSphG=   10.
                        Lebedev-Laikov grids with approx.  5.0 points / Ang**2.
                        Smoothing algorithm: York/Karplus (Gamma=1.0000).
                        Polarization charges: spherical gaussians, with
                                              point-specific exponents (IZeta= 3).
                        Self-potential: point-specific (ISelfS= 7).
                        Self-field    : sphere-specific E.n sum rule (ISelfD= 2).
 1st derivatives      : Analytical E(r).r(x)/FMM algorithm (CHGder, D1EAlg=3).
                        Cavity 1st derivative terms included.
 Solvent              : DiChloroEthane, Eps=  10.125000 Eps(inf)=   2.087447
 ------------------------------------------------------------------------------
 Spheres list:
 ISph  on   Nord     Re0    Alpha      Xe            Ye            Ze
    1  Br      1    2.0945  1.100     -0.887602     -0.209044     -0.014348
    2   C      2    1.9255  1.100      1.136498      0.245985      0.495811
    3   C      3    1.9255  1.100      0.403258      1.301689     -0.178720
    4   C      4    1.9255  1.100      2.138280     -0.590301     -0.186496
    5   H      5    1.4430  1.100      0.032293      2.125738      0.415492
    6   H      6    1.4430  1.100      0.593878      1.480685     -1.228230
    7   H      7    1.4430  1.100      1.934909     -0.688276     -1.250503
    8   H      8    1.4430  1.100      3.083992     -0.047282     -0.081740
    9   H      9    1.4430  1.100      2.247151     -1.561418      0.285313
   10   H     10    1.4430  1.100      1.105642      0.262867      1.578271
 ------------------------------------------------------------------------------
 One-electron integrals computed using PRISM.
   1 Symmetry operations used in ECPInt.
 ECPInt:  NShTT=    2701 NPrTT=    9330 LenC2=    2685 LenP2D=    7707.
 LDataN:  DoStor=T MaxTD1= 6 Len=  172
 NBasis=   177 RedAO= T EigKep=  2.60D-04  NBF=   177
 NBsUse=   177 1.00D-06 EigRej= -1.00D+00 NBFU=   177
 Initial guess from the checkpoint file:  "c5.chk"
 B after Tr=    -0.000000    0.000000   -0.000000
         Rot=    0.999968   -0.006963    0.000787    0.003838 Ang=  -0.92 deg.
 ExpMin= 9.52D-02 ExpMax= 5.65D+05 ExpMxC= 5.46D+03 IAcc=3 IRadAn=         5 AccDes= 0.00D+00
 Harris functional with IExCor= 4639 and IRadAn=       5 diagonalized for initial guess.
 HarFok:  IExCor= 4639 AccDes= 0.00D+00 IRadAn=         5 IDoV= 1 UseB2=F ITyADJ=14
 ICtDFT=  3500011 ScaDFX=  1.000000  1.000000  1.000000  1.000000
 FoFCou: FMM=F IPFlag=           0 FMFlag=      100000 FMFlg1=           0
         NFxFlg=           0 DoJE=T BraDBF=F KetDBF=T FulRan=T
         wScrn=  0.000000 ICntrl=       500 IOpCl=  0 I1Cent=   200000004 NGrid=           0
         NMat0=    1 NMatS0=      1 NMatT0=    0 NMatD0=    1 NMtDS0=    0 NMtDT0=    0
 Petite list used in FoFCou.
 Keep R1 ints in memory in canonical form, NReq=287941379.
 Requested convergence on RMS density matrix=1.00D-08 within 128 cycles.
 Requested convergence on MAX density matrix=1.00D-06.
 Requested convergence on             energy=1.00D-06.
 No special actions if energy rises.
 Inv3:  Mode=1 IEnd=     2887083.
 Iteration    1 A*A^-1 deviation from unit magnitude is 3.33D-15 for    374.
 Iteration    1 A*A^-1 deviation from orthogonality  is 2.32D-15 for    962    188.
 Iteration    1 A^-1*A deviation from unit magnitude is 3.11D-15 for    374.
 Iteration    1 A^-1*A deviation from orthogonality  is 1.26D-15 for    972    527.
 Error on total polarization charges =  0.00598
 SCF Done:  E(RwB97XD) =  -2691.91214600     A.U. after   11 cycles
            NFock= 11  Conv=0.52D-08     -V/T= 2.0016
   1 Symmetry operations used in ECPInt.
 ECPInt:  NShTT=    2701 NPrTT=    9330 LenC2=    2685 LenP2D=    7707.
 LDataN:  DoStor=T MaxTD1= 7 Len=  274
 D1PCM: C-PCM CHGder 1st derivatives, ID1Alg=3 FixD1E=F DoIter=F DoCFld=F I1PDM=0.
 Calling FoFJK, ICntrl=      2127 FMM=F ISym2X=0 I1Cent= 0 IOpClX= 0 NMat=1 NMatS=1 NMatT=0.
 ***** Axes restored to original set *****
 -------------------------------------------------------------------
 Center     Atomic                   Forces (Hartrees/Bohr)
 Number     Number              X              Y              Z
 -------------------------------------------------------------------
      1       35          -0.003484497   -0.000268481   -0.000427870
      2        6           0.006829910    0.002558006   -0.001943517
      3        6          -0.001200321   -0.003213266    0.002461483
      4        6           0.001108105    0.001610593   -0.000558589
      5        1           0.000447125    0.000936600   -0.000726920
      6        1          -0.000388399    0.000407777   -0.000736775
      7        1           0.000128920    0.000227908    0.000810740
      8        1          -0.001360457   -0.001414194   -0.000148606
      9        1          -0.000394178   -0.000535402    0.000772298
     10        1          -0.001686208   -0.000309541    0.000497757
 -------------------------------------------------------------------
 Cartesian Forces:  Max     0.006829910 RMS     0.001849446

 GradGradGradGradGradGradGradGradGradGradGradGradGradGradGradGradGradGrad
 Berny optimization.
 Using GEDIIS/GDIIS optimizer.
 FormGI is forming the generalized inverse of G from B-inverse, IUseBI=4.
 Internal  Forces:  Max     0.003002646 RMS     0.000942601
 Search for a local minimum.
 Step number   6 out of a maximum of   49
 All quantities printed in internal units (Hartrees-Bohrs-Radians)
 Mixed Optimization -- En-DIIS/RFO-DIIS
 Update second derivatives using D2CorX and points    5    6
 DE= -9.90D-04 DEPred=-1.11D-03 R= 8.91D-01
 TightC=F SS=  1.41D+00  RLast= 7.87D-01 DXNew= 2.6277D+00 2.3598D+00
 Trust test= 8.91D-01 RLast= 7.87D-01 DXMaxT set to 2.36D+00
 ITU=  1  1  1  1  1  0
 Use linear search instead of GDIIS.
     Eigenvalues ---    0.00241   0.02536   0.03189   0.04724   0.05280
     Eigenvalues ---    0.06477   0.10957   0.14085   0.15873   0.15948
     Eigenvalues ---    0.16023   0.16134   0.16672   0.18235   0.18933
     Eigenvalues ---    0.21636   0.30682   0.35706   0.35963   0.37164
     Eigenvalues ---    0.37202   0.37250   0.37835   0.39580
 RFO step:  Lambda=-2.46398778D-04 EMin= 2.41223882D-03
 Quartic linear search produced a step of  0.01161.
 Iteration  1 RMS(Cart)=  0.01416664 RMS(Int)=  0.00016746
 Iteration  2 RMS(Cart)=  0.00015233 RMS(Int)=  0.00001966
 Iteration  3 RMS(Cart)=  0.00000001 RMS(Int)=  0.00001966
 Variable       Old X    -DE/DX   Delta X   Delta X   Delta X     New X
                                 (Linear)    (Quad)   (Total)
    R1        4.03725  -0.00300   0.00080  -0.01736  -0.01654   4.02071
    R2        3.76793  -0.00058  -0.00008   0.00019   0.00008   3.76802
    R3        2.74313  -0.00199   0.00000  -0.00517  -0.00516   2.73797
    R4        2.78277   0.00072  -0.00031   0.00270   0.00239   2.78516
    R5        2.04663   0.00059   0.00001   0.00121   0.00122   2.04785
    R6        2.04384   0.00009   0.00000   0.00020   0.00020   2.04405
    R7        2.04392   0.00052  -0.00001   0.00130   0.00129   2.04521
    R8        2.05544   0.00033   0.00000   0.00032   0.00032   2.05576
    R9        2.07028   0.00112   0.00006   0.00251   0.00257   2.07285
   R10        2.05061   0.00099   0.00000   0.00213   0.00213   2.05275
    A1        1.99646  -0.00013  -0.00018   0.00162   0.00141   1.99788
    A2        1.78748   0.00055  -0.00011   0.00849   0.00838   1.79586
    A3        2.14283   0.00121   0.00000   0.00735   0.00731   2.15015
    A4        2.02496   0.00057  -0.00001   0.00169   0.00165   2.02660
    A5        2.08442  -0.00187   0.00016  -0.01204  -0.01189   2.07253
    A6        1.88592   0.00071   0.00006   0.00348   0.00355   1.88947
    A7        1.89598   0.00017   0.00002   0.00500   0.00501   1.90099
    A8        2.06243   0.00155  -0.00010   0.00857   0.00847   2.07091
    A9        2.07400  -0.00048  -0.00010  -0.00303  -0.00313   2.07086
   A10        2.05722  -0.00103   0.00001  -0.00604  -0.00603   2.05119
   A11        1.95758   0.00103  -0.00003   0.00837   0.00833   1.96591
   A12        1.83533  -0.00075  -0.00031  -0.00351  -0.00386   1.83147
   A13        1.95522  -0.00038   0.00017  -0.00458  -0.00443   1.95080
   A14        1.87506   0.00070   0.00000   0.00983   0.00981   1.88487
   A15        1.94279  -0.00034   0.00025  -0.00161  -0.00136   1.94143
   A16        1.89167  -0.00027  -0.00012  -0.00858  -0.00874   1.88293
    D1       -2.68424   0.00011  -0.00011   0.00213   0.00205  -2.68219
    D2        0.00649  -0.00004  -0.00058  -0.00059  -0.00114   0.00534
    D3        0.19050  -0.00056   0.00051  -0.01247  -0.01198   0.17852
    D4        2.88123  -0.00071   0.00004  -0.01519  -0.01518   2.86605
    D5        0.80326   0.00062   0.00314   0.02349   0.02664   0.82990
    D6        2.83576   0.00153   0.00293   0.03737   0.04031   2.87607
    D7       -1.39629   0.00056   0.00269   0.02265   0.02538  -1.37091
    D8       -0.48825  -0.00068   0.00356   0.01373   0.01728  -0.47097
    D9        1.54425   0.00024   0.00335   0.02761   0.03095   1.57520
   D10       -2.68781  -0.00073   0.00311   0.01289   0.01602  -2.67179
   D11        2.92888  -0.00036   0.00294   0.02668   0.02960   2.95848
   D12       -1.32180   0.00055   0.00274   0.04056   0.04326  -1.27854
   D13        0.72933  -0.00042   0.00250   0.02584   0.02833   0.75766
         Item               Value     Threshold  Converged?
 Maximum Force            0.003003     0.000450     NO 
 RMS     Force            0.000943     0.000300     NO 
 Maximum Displacement     0.043617     0.001800     NO 
 RMS     Displacement     0.014179     0.001200     NO 
 Predicted change in Energy=-1.251206D-04
 GradGradGradGradGradGradGradGradGradGradGradGradGradGradGradGradGradGrad

                          Input orientation:                          
 ---------------------------------------------------------------------
 Center     Atomic      Atomic             Coordinates (Angstroms)
 Number     Number       Type             X           Y           Z
 ---------------------------------------------------------------------
      1         35           0        4.340688   -3.206655    4.050301
      2          6           0        2.258260   -3.250896    3.616125
      3          6           0        3.103207   -2.726746    2.562297
      4          6           0        1.434215   -2.396521    4.489742
      5          1           0        3.329611   -3.360507    1.715489
      6          1           0        3.137498   -1.655940    2.408919
      7          1           0        1.842641   -1.394442    4.601407
      8          1           0        0.469016   -2.313672    3.975230
      9          1           0        1.258247   -2.859658    5.456445
     10          1           0        2.042996   -4.312042    3.571574
 ---------------------------------------------------------------------
                    Distance matrix (angstroms):
                    1          2          3          4          5
     1  Br   0.000000
     2  C    2.127669   0.000000
     3  C    1.993948   1.448869   0.000000
     4  C    3.049100   1.473843   2.570920   0.000000
     5  H    2.548979   2.184542   1.081663   3.495465   0.000000
     6  H    2.558616   2.185015   1.082278   2.789168   1.850217
     7  H    3.134976   2.142414   2.742632   1.087862   3.795394
     8  H    3.974029   2.051521   3.017611   1.096903   3.792796
     9  H    3.405744   2.130697   3.434769   1.086267   4.305363
    10  H    2.594311   1.083676   2.157742   2.209721   2.450683
                    6          7          8          9         10
     6  H    0.000000
     7  H    2.559695   0.000000
     8  H    3.163343   1.767464   0.000000
     9  H    3.777292   1.794287   1.764932   0.000000
    10  H    3.099126   3.100498   2.575623   2.505591   0.000000
 Stoichiometry    C3H6Br(1+)
 Framework group  C1[X(C3H6Br)]
 Deg. of freedom    24
 Full point group                 C1      NOp   1
 Largest Abelian subgroup         C1      NOp   1
 Largest concise Abelian subgroup C1      NOp   1
                         Standard orientation:                         
 ---------------------------------------------------------------------
 Center     Atomic      Atomic             Coordinates (Angstroms)
 Number     Number       Type             X           Y           Z
 ---------------------------------------------------------------------
      1         35           0       -0.885224   -0.210388   -0.014210
      2          6           0        1.130158    0.248262    0.490615
      3          6           0        0.399173    1.306051   -0.177191
      4          6           0        2.135191   -0.590201   -0.186955
      5          1           0        0.025714    2.131481    0.413731
      6          1           0        0.594176    1.489582   -1.225817
      7          1           0        1.954978   -0.678214   -1.256169
      8          1           0        3.085889   -0.061539   -0.045930
      9          1           0        2.224684   -1.567498    0.278724
     10          1           0        1.110277    0.265096    1.573978
 ---------------------------------------------------------------------
 Rotational constants (GHZ):          10.5405737           3.1340242           2.6583661
 Standard basis: def2TZVP (5D, 7F)
 There are   199 symmetry adapted cartesian basis functions of A   symmetry.
 There are   177 symmetry adapted basis functions of A   symmetry.
   177 basis functions,   315 primitive gaussians,   199 cartesian basis functions
    29 alpha electrons       29 beta electrons
       nuclear repulsion energy       251.6633198258 Hartrees.
 NAtoms=   10 NActive=   10 NUniq=   10 SFac= 1.00D+00 NAtFMM=   60 NAOKFM=F Big=F
 Integral buffers will be    131072 words long.
 Raffenetti 2 integral format.
 Two-electron integral symmetry is turned on.
 Nuclear repulsion after empirical dispersion term =      251.6597930306 Hartrees.
 ------------------------------------------------------------------------------
 Polarizable Continuum Model (PCM)
 =================================
 Model                : C-PCM.
 Atomic radii         : UFF (Universal Force Field).
 Polarization charges : Total charges.
 Charge compensation  : None.
 Solution method      : On-the-fly selection.
 Cavity type          : Scaled VdW (van der Waals Surface) (Alpha=1.100).
 Cavity algorithm     : GePol (No added spheres)
                        Default sphere list used, NSphG=   10.
                        Lebedev-Laikov grids with approx.  5.0 points / Ang**2.
                        Smoothing algorithm: York/Karplus (Gamma=1.0000).
                        Polarization charges: spherical gaussians, with
                                              point-specific exponents (IZeta= 3).
                        Self-potential: point-specific (ISelfS= 7).
                        Self-field    : sphere-specific E.n sum rule (ISelfD= 2).
 1st derivatives      : Analytical E(r).r(x)/FMM algorithm (CHGder, D1EAlg=3).
                        Cavity 1st derivative terms included.
 Solvent              : DiChloroEthane, Eps=  10.125000 Eps(inf)=   2.087447
 ------------------------------------------------------------------------------
 Spheres list:
 ISph  on   Nord     Re0    Alpha      Xe            Ye            Ze
    1  Br      1    2.0945  1.100     -0.885224     -0.210388     -0.014210
    2   C      2    1.9255  1.100      1.130158      0.248262      0.490615
    3   C      3    1.9255  1.100      0.399173      1.306051     -0.177191
    4   C      4    1.9255  1.100      2.135191     -0.590201     -0.186955
    5   H      5    1.4430  1.100      0.025714      2.131481      0.413731
    6   H      6    1.4430  1.100      0.594176      1.489582     -1.225817
    7   H      7    1.4430  1.100      1.954978     -0.678214     -1.256169
    8   H      8    1.4430  1.100      3.085889     -0.061539     -0.045930
    9   H      9    1.4430  1.100      2.224684     -1.567498      0.278724
   10   H     10    1.4430  1.100      1.110277      0.265096      1.573978
 ------------------------------------------------------------------------------
 One-electron integrals computed using PRISM.
   1 Symmetry operations used in ECPInt.
 ECPInt:  NShTT=    2701 NPrTT=    9330 LenC2=    2685 LenP2D=    7708.
 LDataN:  DoStor=T MaxTD1= 6 Len=  172
 NBasis=   177 RedAO= T EigKep=  2.57D-04  NBF=   177
 NBsUse=   177 1.00D-06 EigRej= -1.00D+00 NBFU=   177
 Initial guess from the checkpoint file:  "c5.chk"
 B after Tr=     0.000000   -0.000000    0.000000
         Rot=    1.000000   -0.000500    0.000434   -0.000362 Ang=  -0.09 deg.
 ExpMin= 9.52D-02 ExpMax= 5.65D+05 ExpMxC= 5.46D+03 IAcc=3 IRadAn=         5 AccDes= 0.00D+00
 Harris functional with IExCor= 4639 and IRadAn=       5 diagonalized for initial guess.
 HarFok:  IExCor= 4639 AccDes= 0.00D+00 IRadAn=         5 IDoV= 1 UseB2=F ITyADJ=14
 ICtDFT=  3500011 ScaDFX=  1.000000  1.000000  1.000000  1.000000
 FoFCou: FMM=F IPFlag=           0 FMFlag=      100000 FMFlg1=           0
         NFxFlg=           0 DoJE=T BraDBF=F KetDBF=T FulRan=T
         wScrn=  0.000000 ICntrl=       500 IOpCl=  0 I1Cent=   200000004 NGrid=           0
         NMat0=    1 NMatS0=      1 NMatT0=    0 NMatD0=    1 NMtDS0=    0 NMtDT0=    0
 Petite list used in FoFCou.
 Keep R1 ints in memory in canonical form, NReq=287941379.
 Requested convergence on RMS density matrix=1.00D-08 within 128 cycles.
 Requested convergence on MAX density matrix=1.00D-06.
 Requested convergence on             energy=1.00D-06.
 No special actions if energy rises.
 Inv3:  Mode=1 IEnd=     2881200.
 Iteration    1 A*A^-1 deviation from unit magnitude is 4.44D-15 for    962.
 Iteration    1 A*A^-1 deviation from orthogonality  is 1.95D-15 for    961    190.
 Iteration    1 A^-1*A deviation from unit magnitude is 4.22D-15 for    962.
 Iteration    1 A^-1*A deviation from orthogonality  is 1.02D-15 for    586    396.
 Error on total polarization charges =  0.00598
 SCF Done:  E(RwB97XD) =  -2691.91233692     A.U. after   10 cycles
            NFock= 10  Conv=0.35D-08     -V/T= 2.0016
   1 Symmetry operations used in ECPInt.
 ECPInt:  NShTT=    2701 NPrTT=    9330 LenC2=    2685 LenP2D=    7708.
 LDataN:  DoStor=T MaxTD1= 7 Len=  274
 D1PCM: C-PCM CHGder 1st derivatives, ID1Alg=3 FixD1E=F DoIter=F DoCFld=F I1PDM=0.
 Calling FoFJK, ICntrl=      2127 FMM=F ISym2X=0 I1Cent= 0 IOpClX= 0 NMat=1 NMatS=1 NMatT=0.
 ***** Axes restored to original set *****
 -------------------------------------------------------------------
 Center     Atomic                   Forces (Hartrees/Bohr)
 Number     Number              X              Y              Z
 -------------------------------------------------------------------
      1       35          -0.002815804   -0.000104573   -0.000499257
      2        6           0.004520642    0.000739082   -0.000600304
      3        6          -0.000815926   -0.000911337    0.000978643
      4        6          -0.000062674    0.000935830   -0.000578906
      5        1           0.000226073    0.000368115   -0.000230365
      6        1           0.000147667    0.000115021   -0.000327514
      7        1           0.000134533   -0.000096603    0.000253672
      8        1          -0.000367413   -0.000711207    0.000155421
      9        1          -0.000021136   -0.000256764    0.000380159
     10        1          -0.000945962   -0.000077564    0.000468451
 -------------------------------------------------------------------
 Cartesian Forces:  Max     0.004520642 RMS     0.001090421

 GradGradGradGradGradGradGradGradGradGradGradGradGradGradGradGradGradGrad
 Berny optimization.
 Using GEDIIS/GDIIS optimizer.
 FormGI is forming the generalized inverse of G from B-inverse, IUseBI=4.
 Internal  Forces:  Max     0.002463311 RMS     0.000540133
 Search for a local minimum.
 Step number   7 out of a maximum of   49
 All quantities printed in internal units (Hartrees-Bohrs-Radians)
 Mixed Optimization -- En-DIIS/RFO-DIIS
 Swapping is turned off.
 Update second derivatives using D2CorX and points    6    7
 DE= -1.91D-04 DEPred=-1.25D-04 R= 1.53D+00
 TightC=F SS=  1.41D+00  RLast= 9.72D-02 DXNew= 3.9686D+00 2.9157D-01
 Trust test= 1.53D+00 RLast= 9.72D-02 DXMaxT set to 2.36D+00
 ITU=  1  1  1  1  1  1  0
     Eigenvalues ---    0.00224   0.02166   0.03133   0.04742   0.05058
     Eigenvalues ---    0.05738   0.08616   0.12371   0.15749   0.15916
     Eigenvalues ---    0.16027   0.16536   0.16800   0.17751   0.18984
     Eigenvalues ---    0.21946   0.30834   0.35701   0.35966   0.36964
     Eigenvalues ---    0.37201   0.37343   0.37729   0.39582
 En-DIIS/RFO-DIIS/Sim-DIIS IScMMF=       -3 using points:     7    6
 RFO step:  Lambda=-2.32567678D-04.
 DidBck=F Rises=F RFO-DIIS coefs:    2.44652   -1.44652
 Iteration  1 RMS(Cart)=  0.02171796 RMS(Int)=  0.00037858
 Iteration  2 RMS(Cart)=  0.00034481 RMS(Int)=  0.00007570
 Iteration  3 RMS(Cart)=  0.00000004 RMS(Int)=  0.00007570
 Variable       Old X    -DE/DX   Delta X   Delta X   Delta X     New X
                                 (Linear)    (Quad)   (Total)
    R1        4.02071  -0.00246  -0.02393  -0.01641  -0.04026   3.98045
    R2        3.76802  -0.00048   0.00012  -0.00159  -0.00157   3.76644
    R3        2.73797  -0.00062  -0.00747   0.00349  -0.00395   2.73402
    R4        2.78516   0.00020   0.00346  -0.00064   0.00282   2.78798
    R5        2.04785   0.00024   0.00176  -0.00069   0.00107   2.04892
    R6        2.04405  -0.00000   0.00030  -0.00035  -0.00005   2.04399
    R7        2.04521   0.00018   0.00187  -0.00055   0.00132   2.04653
    R8        2.05576  -0.00003   0.00047  -0.00150  -0.00103   2.05473
    R9        2.07285   0.00020   0.00372  -0.00279   0.00092   2.07377
   R10        2.05275   0.00046   0.00308  -0.00067   0.00242   2.05516
    A1        1.99788  -0.00019   0.00204   0.00117   0.00315   2.00102
    A2        1.79586   0.00034   0.01212  -0.00038   0.01173   1.80759
    A3        2.15015   0.00028   0.01058  -0.00499   0.00543   2.15558
    A4        2.02660   0.00067   0.00238   0.00567   0.00794   2.03454
    A5        2.07253  -0.00100  -0.01720  -0.00161  -0.01883   2.05370
    A6        1.88947   0.00038   0.00513   0.00012   0.00531   1.89478
    A7        1.90099   0.00010   0.00725  -0.00578   0.00145   1.90244
    A8        2.07091   0.00054   0.01226  -0.00270   0.00953   2.08044
    A9        2.07086   0.00015  -0.00453   0.00679   0.00224   2.07310
   A10        2.05119  -0.00052  -0.00873   0.00159  -0.00716   2.04403
   A11        1.96591   0.00023   0.01205  -0.00560   0.00643   1.97233
   A12        1.83147  -0.00022  -0.00558   0.00444  -0.00124   1.83023
   A13        1.95080  -0.00028  -0.00640  -0.00181  -0.00826   1.94254
   A14        1.88487   0.00040   0.01419   0.00056   0.01468   1.89954
   A15        1.94143  -0.00003  -0.00196  -0.00015  -0.00209   1.93934
   A16        1.88293  -0.00009  -0.01264   0.00334  -0.00943   1.87350
    D1       -2.68219  -0.00002   0.00297   0.00239   0.00545  -2.67674
    D2        0.00534   0.00027  -0.00166   0.01624   0.01471   0.02006
    D3        0.17852  -0.00040  -0.01734  -0.00151  -0.01901   0.15951
    D4        2.86605  -0.00011  -0.02196   0.01234  -0.00975   2.85630
    D5        0.82990   0.00034   0.03854  -0.00016   0.03842   0.86833
    D6        2.87607   0.00081   0.05831   0.00033   0.05869   2.93477
    D7       -1.37091   0.00043   0.03671   0.00597   0.04279  -1.32812
    D8       -0.47097  -0.00036   0.02500  -0.00395   0.02105  -0.44992
    D9        1.57520   0.00011   0.04477  -0.00346   0.04132   1.61652
   D10       -2.67179  -0.00027   0.02317   0.00218   0.02542  -2.64637
   D11        2.95848  -0.00022   0.04281  -0.00103   0.04165   3.00013
   D12       -1.27854   0.00024   0.06258  -0.00054   0.06192  -1.21662
   D13        0.75766  -0.00014   0.04098   0.00510   0.04602   0.80368
         Item               Value     Threshold  Converged?
 Maximum Force            0.002463     0.000450     NO 
 RMS     Force            0.000540     0.000300     NO 
 Maximum Displacement     0.066047     0.001800     NO 
 RMS     Displacement     0.021737     0.001200     NO 
 Predicted change in Energy=-1.186540D-04
 GradGradGradGradGradGradGradGradGradGradGradGradGradGradGradGradGradGrad

                          Input orientation:                          
 ---------------------------------------------------------------------
 Center     Atomic      Atomic             Coordinates (Angstroms)
 Number     Number       Type             X           Y           Z
 ---------------------------------------------------------------------
      1         35           0        4.322296   -3.223801    4.060164
      2          6           0        2.263963   -3.244584    3.613390
      3          6           0        3.108689   -2.725736    2.559631
      4          6           0        1.435926   -2.392050    4.487549
      5          1           0        3.337138   -3.353670    1.709075
      6          1           0        3.155621   -1.654325    2.408929
      7          1           0        1.824224   -1.381297    4.586821
      8          1           0        0.457155   -2.348622    3.993190
      9          1           0        1.286969   -2.851983    5.461730
     10          1           0        2.024398   -4.301013    3.567050
 ---------------------------------------------------------------------
                    Distance matrix (angstroms):
                    1          2          3          4          5
     1  Br   0.000000
     2  C    2.106365   0.000000
     3  C    1.993116   1.446780   0.000000
     4  C    3.034073   1.475335   2.574169   0.000000
     5  H    2.552454   2.188611   1.081635   3.501319   0.000000
     6  H    2.559484   2.185109   1.082975   2.796828   1.846758
     7  H    3.148421   2.147738   2.750794   1.087314   3.802708
     8  H    3.963552   2.052206   3.037752   1.097392   3.810722
     9  H    3.363903   2.127207   3.428816   1.087546   4.305496
    10  H    2.585321   1.084242   2.161498   2.199490   2.464308
                    6          7          8          9         10
     6  H    0.000000
     7  H    2.567173   0.000000
     8  H    3.205254   1.776794   0.000000
     9  H    3.774366   1.793607   1.760277   0.000000
    10  H    3.102557   3.099152   2.539621   2.496658   0.000000
 Stoichiometry    C3H6Br(1+)
 Framework group  C1[X(C3H6Br)]
 Deg. of freedom    24
 Full point group                 C1      NOp   1
 Largest Abelian subgroup         C1      NOp   1
 Largest concise Abelian subgroup C1      NOp   1
                         Standard orientation:                         
 ---------------------------------------------------------------------
 Center     Atomic      Atomic             Coordinates (Angstroms)
 Number     Number       Type             X           Y           Z
 ---------------------------------------------------------------------
      1         35           0       -0.878818   -0.212536   -0.014546
      2          6           0        1.114839    0.248006    0.485461
      3          6           0        0.392242    1.314484   -0.173060
      4          6           0        2.126982   -0.587299   -0.188664
      5          1           0        0.015142    2.139028    0.416736
      6          1           0        0.585271    1.505225   -1.221484
      7          1           0        1.977684   -0.651108   -1.263787
      8          1           0        3.082609   -0.084587    0.007115
      9          1           0        2.183761   -1.577063    0.258438
     10          1           0        1.109783    0.256121    1.569661
 ---------------------------------------------------------------------
 Rotational constants (GHZ):          10.4806106           3.1726916           2.6798345
 Standard basis: def2TZVP (5D, 7F)
 There are   199 symmetry adapted cartesian basis functions of A   symmetry.
 There are   177 symmetry adapted basis functions of A   symmetry.
   177 basis functions,   315 primitive gaussians,   199 cartesian basis functions
    29 alpha electrons       29 beta electrons
       nuclear repulsion energy       252.4373057795 Hartrees.
 NAtoms=   10 NActive=   10 NUniq=   10 SFac= 1.00D+00 NAtFMM=   60 NAOKFM=F Big=F
 Integral buffers will be    131072 words long.
 Raffenetti 2 integral format.
 Two-electron integral symmetry is turned on.
 Nuclear repulsion after empirical dispersion term =      252.4337790543 Hartrees.
 ------------------------------------------------------------------------------
 Polarizable Continuum Model (PCM)
 =================================
 Model                : C-PCM.
 Atomic radii         : UFF (Universal Force Field).
 Polarization charges : Total charges.
 Charge compensation  : None.
 Solution method      : On-the-fly selection.
 Cavity type          : Scaled VdW (van der Waals Surface) (Alpha=1.100).
 Cavity algorithm     : GePol (No added spheres)
                        Default sphere list used, NSphG=   10.
                        Lebedev-Laikov grids with approx.  5.0 points / Ang**2.
                        Smoothing algorithm: York/Karplus (Gamma=1.0000).
                        Polarization charges: spherical gaussians, with
                                              point-specific exponents (IZeta= 3).
                        Self-potential: point-specific (ISelfS= 7).
                        Self-field    : sphere-specific E.n sum rule (ISelfD= 2).
 1st derivatives      : Analytical E(r).r(x)/FMM algorithm (CHGder, D1EAlg=3).
                        Cavity 1st derivative terms included.
 Solvent              : DiChloroEthane, Eps=  10.125000 Eps(inf)=   2.087447
 ------------------------------------------------------------------------------
 Spheres list:
 ISph  on   Nord     Re0    Alpha      Xe            Ye            Ze
    1  Br      1    2.0945  1.100     -0.878818     -0.212536     -0.014546
    2   C      2    1.9255  1.100      1.114839      0.248006      0.485461
    3   C      3    1.9255  1.100      0.392242      1.314484     -0.173060
    4   C      4    1.9255  1.100      2.126982     -0.587299     -0.188664
    5   H      5    1.4430  1.100      0.015142      2.139028      0.416736
    6   H      6    1.4430  1.100      0.585271      1.505225     -1.221484
    7   H      7    1.4430  1.100      1.977684     -0.651108     -1.263787
    8   H      8    1.4430  1.100      3.082609     -0.084587      0.007115
    9   H      9    1.4430  1.100      2.183761     -1.577063      0.258438
   10   H     10    1.4430  1.100      1.109783      0.256121      1.569661
 ------------------------------------------------------------------------------
 One-electron integrals computed using PRISM.
   1 Symmetry operations used in ECPInt.
 ECPInt:  NShTT=    2701 NPrTT=    9330 LenC2=    2686 LenP2D=    7712.
 LDataN:  DoStor=T MaxTD1= 6 Len=  172
 NBasis=   177 RedAO= T EigKep=  2.54D-04  NBF=   177
 NBsUse=   177 1.00D-06 EigRej= -1.00D+00 NBFU=   177
 Initial guess from the checkpoint file:  "c5.chk"
 B after Tr=    -0.000000   -0.000000    0.000000
         Rot=    0.999996   -0.002464    0.000723   -0.000770 Ang=  -0.31 deg.
 ExpMin= 9.52D-02 ExpMax= 5.65D+05 ExpMxC= 5.46D+03 IAcc=3 IRadAn=         5 AccDes= 0.00D+00
 Harris functional with IExCor= 4639 and IRadAn=       5 diagonalized for initial guess.
 HarFok:  IExCor= 4639 AccDes= 0.00D+00 IRadAn=         5 IDoV= 1 UseB2=F ITyADJ=14
 ICtDFT=  3500011 ScaDFX=  1.000000  1.000000  1.000000  1.000000
 FoFCou: FMM=F IPFlag=           0 FMFlag=      100000 FMFlg1=           0
         NFxFlg=           0 DoJE=T BraDBF=F KetDBF=T FulRan=T
         wScrn=  0.000000 ICntrl=       500 IOpCl=  0 I1Cent=   200000004 NGrid=           0
         NMat0=    1 NMatS0=      1 NMatT0=    0 NMatD0=    1 NMtDS0=    0 NMtDT0=    0
 Petite list used in FoFCou.
 Keep R1 ints in memory in canonical form, NReq=287941379.
 Requested convergence on RMS density matrix=1.00D-08 within 128 cycles.
 Requested convergence on MAX density matrix=1.00D-06.
 Requested convergence on             energy=1.00D-06.
 No special actions if energy rises.
 Inv3:  Mode=1 IEnd=     2934363.
 Iteration    1 A*A^-1 deviation from unit magnitude is 3.33D-15 for    981.
 Iteration    1 A*A^-1 deviation from orthogonality  is 1.40D-15 for    983    784.
 Iteration    1 A^-1*A deviation from unit magnitude is 3.33D-15 for    981.
 Iteration    1 A^-1*A deviation from orthogonality  is 1.24D-15 for    981    510.
 Error on total polarization charges =  0.00597
 SCF Done:  E(RwB97XD) =  -2691.91246416     A.U. after   10 cycles
            NFock= 10  Conv=0.67D-08     -V/T= 2.0016
   1 Symmetry operations used in ECPInt.
 ECPInt:  NShTT=    2701 NPrTT=    9330 LenC2=    2686 LenP2D=    7712.
 LDataN:  DoStor=T MaxTD1= 7 Len=  274
 D1PCM: C-PCM CHGder 1st derivatives, ID1Alg=3 FixD1E=F DoIter=F DoCFld=F I1PDM=0.
 Calling FoFJK, ICntrl=      2127 FMM=F ISym2X=0 I1Cent= 0 IOpClX= 0 NMat=1 NMatS=1 NMatT=0.
 ***** Axes restored to original set *****
 -------------------------------------------------------------------
 Center     Atomic                   Forces (Hartrees/Bohr)
 Number     Number              X              Y              Z
 -------------------------------------------------------------------
      1       35          -0.000553574   -0.000105212   -0.000001132
      2        6           0.000937466   -0.000620012    0.000345494
      3        6          -0.000266017    0.000703324   -0.000711192
      4        6          -0.001054100   -0.000208096    0.000176260
      5        1           0.000055393   -0.000341871    0.000213670
      6        1           0.000020299   -0.000193519    0.000205630
      7        1           0.000016941    0.000121759   -0.000163841
      8        1           0.000433039    0.000339372    0.000206250
      9        1           0.000205438    0.000227753    0.000060698
     10        1           0.000205115    0.000076502   -0.000331837
 -------------------------------------------------------------------
 Cartesian Forces:  Max     0.001054100 RMS     0.000401895

 GradGradGradGradGradGradGradGradGradGradGradGradGradGradGradGradGradGrad
 Berny optimization.
 Using GEDIIS/GDIIS optimizer.
 FormGI is forming the generalized inverse of G from B-inverse, IUseBI=4.
 Internal  Forces:  Max     0.000646515 RMS     0.000236079
 Search for a local minimum.
 Step number   8 out of a maximum of   49
 All quantities printed in internal units (Hartrees-Bohrs-Radians)
 Mixed Optimization -- En-DIIS/RFO-DIIS
 Swapping is turned off.
 Update second derivatives using D2CorX and points    6    7    8
 DE= -1.27D-04 DEPred=-1.19D-04 R= 1.07D+00
 TightC=F SS=  1.41D+00  RLast= 1.44D-01 DXNew= 3.9686D+00 4.3255D-01
 Trust test= 1.07D+00 RLast= 1.44D-01 DXMaxT set to 2.36D+00
 ITU=  1  1  1  1  1  1  1  0
     Eigenvalues ---    0.00225   0.01933   0.03137   0.04599   0.05085
     Eigenvalues ---    0.06330   0.08256   0.12289   0.15905   0.15966
     Eigenvalues ---    0.16111   0.16533   0.17044   0.17804   0.19053
     Eigenvalues ---    0.22540   0.30677   0.35744   0.35965   0.37121
     Eigenvalues ---    0.37201   0.37448   0.38134   0.39636
 En-DIIS/RFO-DIIS/Sim-DIIS IScMMF=       -3 using points:     8    7    6
 RFO step:  Lambda=-1.66157324D-05.
 DidBck=F Rises=F RFO-DIIS coefs:    1.08392   -0.09886    0.01494
 Iteration  1 RMS(Cart)=  0.00212654 RMS(Int)=  0.00000594
 Iteration  2 RMS(Cart)=  0.00000496 RMS(Int)=  0.00000435
 Iteration  3 RMS(Cart)=  0.00000000 RMS(Int)=  0.00000435
 Variable       Old X    -DE/DX   Delta X   Delta X   Delta X     New X
                                 (Linear)    (Quad)   (Total)
    R1        3.98045  -0.00064  -0.00313  -0.00623  -0.00936   3.97110
    R2        3.76644   0.00013  -0.00013   0.00164   0.00151   3.76795
    R3        2.73402   0.00014  -0.00025   0.00009  -0.00017   2.73385
    R4        2.78798   0.00065   0.00020   0.00272   0.00293   2.79090
    R5        2.04892  -0.00011   0.00007  -0.00023  -0.00016   2.04876
    R6        2.04399   0.00003  -0.00001   0.00011   0.00010   2.04410
    R7        2.04653  -0.00020   0.00009  -0.00050  -0.00041   2.04612
    R8        2.05473   0.00009  -0.00009   0.00036   0.00027   2.05499
    R9        2.07377  -0.00046   0.00004  -0.00115  -0.00111   2.07266
   R10        2.05516  -0.00006   0.00017  -0.00008   0.00009   2.05525
    A1        2.00102  -0.00016   0.00024   0.00024   0.00048   2.00151
    A2        1.80759  -0.00016   0.00086   0.00075   0.00162   1.80921
    A3        2.15558  -0.00027   0.00035  -0.00105  -0.00072   2.15487
    A4        2.03454  -0.00023   0.00064  -0.00264  -0.00201   2.03253
    A5        2.05370   0.00048  -0.00140   0.00222   0.00081   2.05450
    A6        1.89478  -0.00004   0.00039  -0.00188  -0.00148   1.89329
    A7        1.90244   0.00005   0.00005  -0.00020  -0.00016   1.90229
    A8        2.08044  -0.00027   0.00067  -0.00037   0.00030   2.08074
    A9        2.07310   0.00002   0.00023   0.00016   0.00038   2.07349
   A10        2.04403   0.00032  -0.00051   0.00219   0.00167   2.04570
   A11        1.97233  -0.00024   0.00041  -0.00188  -0.00146   1.97087
   A12        1.83023   0.00031  -0.00005   0.00250   0.00245   1.83268
   A13        1.94254   0.00014  -0.00063   0.00097   0.00034   1.94288
   A14        1.89954  -0.00020   0.00109  -0.00211  -0.00103   1.89852
   A15        1.93934  -0.00002  -0.00015  -0.00132  -0.00147   1.93787
   A16        1.87350   0.00004  -0.00066   0.00220   0.00153   1.87503
    D1       -2.67674  -0.00015   0.00043  -0.00166  -0.00123  -2.67797
    D2        0.02006   0.00011   0.00125   0.00375   0.00500   0.02506
    D3        0.15951  -0.00017  -0.00142  -0.00684  -0.00825   0.15125
    D4        2.85630   0.00009  -0.00059  -0.00143  -0.00202   2.85428
    D5        0.86833   0.00006   0.00283  -0.00129   0.00154   0.86987
    D6        2.93477  -0.00011   0.00432  -0.00327   0.00105   2.93582
    D7       -1.32812   0.00017   0.00321   0.00118   0.00440  -1.32373
    D8       -0.44992  -0.00004   0.00151  -0.00408  -0.00257  -0.45249
    D9        1.61652  -0.00021   0.00301  -0.00606  -0.00306   1.61347
   D10       -2.64637   0.00008   0.00189  -0.00161   0.00029  -2.64608
   D11        3.00013   0.00010   0.00305   0.00194   0.00500   3.00513
   D12       -1.21662  -0.00007   0.00455  -0.00004   0.00451  -1.21211
   D13        0.80368   0.00022   0.00344   0.00441   0.00785   0.81153
         Item               Value     Threshold  Converged?
 Maximum Force            0.000647     0.000450     NO 
 RMS     Force            0.000236     0.000300     YES
 Maximum Displacement     0.006406     0.001800     NO 
 RMS     Displacement     0.002125     0.001200     NO 
 Predicted change in Energy=-8.309356D-06
 GradGradGradGradGradGradGradGradGradGradGradGradGradGradGradGradGradGrad

                          Input orientation:                          
 ---------------------------------------------------------------------
 Center     Atomic      Atomic             Coordinates (Angstroms)
 Number     Number       Type             X           Y           Z
 ---------------------------------------------------------------------
      1         35           0        4.318906   -3.224664    4.061802
      2          6           0        2.265906   -3.245299    3.613800
      3          6           0        3.107911   -2.725415    2.558494
      4          6           0        1.435438   -2.392316    4.487827
      5          1           0        3.338701   -3.354131    1.709080
      6          1           0        3.155154   -1.654089    2.408837
      7          1           0        1.823699   -1.381262    4.585716
      8          1           0        0.456660   -2.348443    3.994832
      9          1           0        1.288646   -2.850211    5.463349
     10          1           0        2.025357   -4.301251    3.563793
 ---------------------------------------------------------------------
                    Distance matrix (angstroms):
                    1          2          3          4          5
     1  Br   0.000000
     2  C    2.101414   0.000000
     3  C    1.993914   1.446693   0.000000
     4  C    3.031285   1.476882   2.574965   0.000000
     5  H    2.552031   2.188764   1.081689   3.502703   0.000000
     6  H    2.559946   2.185096   1.082760   2.797249   1.847564
     7  H    3.146216   2.148209   2.750559   1.087455   3.802956
     8  H    3.960959   2.054971   3.038800   1.096803   3.813427
     9  H    3.359617   2.128841   3.429793   1.087593   4.307109
    10  H    2.582135   1.084159   2.160049   2.201336   2.462086
                    6          7          8          9         10
     6  H    0.000000
     7  H    2.566322   0.000000
     8  H    3.206147   1.775776   0.000000
     9  H    3.774202   1.792856   1.760828   0.000000
    10  H    3.101263   3.100215   2.541666   2.501314   0.000000
 Stoichiometry    C3H6Br(1+)
 Framework group  C1[X(C3H6Br)]
 Deg. of freedom    24
 Full point group                 C1      NOp   1
 Largest Abelian subgroup         C1      NOp   1
 Largest concise Abelian subgroup C1      NOp   1
                         Standard orientation:                         
 ---------------------------------------------------------------------
 Center     Atomic      Atomic             Coordinates (Angstroms)
 Number     Number       Type             X           Y           Z
 ---------------------------------------------------------------------
      1         35           0       -0.877487   -0.212941   -0.014731
      2          6           0        1.110761    0.247829    0.485770
      3          6           0        0.391935    1.316491   -0.173147
      4          6           0        2.125600   -0.587357   -0.187837
      5          1           0        0.012231    2.139701    0.416939
      6          1           0        0.585561    1.506618   -1.221350
      7          1           0        1.977214   -0.649199   -1.263344
      8          1           0        3.081383   -0.086434    0.008461
      9          1           0        2.180035   -1.578633    0.256310
     10          1           0        1.105858    0.259111    1.569860
 ---------------------------------------------------------------------
 Rotational constants (GHZ):          10.4620752           3.1805681           2.6841995
 Standard basis: def2TZVP (5D, 7F)
 There are   199 symmetry adapted cartesian basis functions of A   symmetry.
 There are   177 symmetry adapted basis functions of A   symmetry.
   177 basis functions,   315 primitive gaussians,   199 cartesian basis functions
    29 alpha electrons       29 beta electrons
       nuclear repulsion energy       252.5772921786 Hartrees.
 NAtoms=   10 NActive=   10 NUniq=   10 SFac= 1.00D+00 NAtFMM=   60 NAOKFM=F Big=F
 Integral buffers will be    131072 words long.
 Raffenetti 2 integral format.
 Two-electron integral symmetry is turned on.
 Nuclear repulsion after empirical dispersion term =      252.5737668065 Hartrees.
 ------------------------------------------------------------------------------
 Polarizable Continuum Model (PCM)
 =================================
 Model                : C-PCM.
 Atomic radii         : UFF (Universal Force Field).
 Polarization charges : Total charges.
 Charge compensation  : None.
 Solution method      : On-the-fly selection.
 Cavity type          : Scaled VdW (van der Waals Surface) (Alpha=1.100).
 Cavity algorithm     : GePol (No added spheres)
                        Default sphere list used, NSphG=   10.
                        Lebedev-Laikov grids with approx.  5.0 points / Ang**2.
                        Smoothing algorithm: York/Karplus (Gamma=1.0000).
                        Polarization charges: spherical gaussians, with
                                              point-specific exponents (IZeta= 3).
                        Self-potential: point-specific (ISelfS= 7).
                        Self-field    : sphere-specific E.n sum rule (ISelfD= 2).
 1st derivatives      : Analytical E(r).r(x)/FMM algorithm (CHGder, D1EAlg=3).
                        Cavity 1st derivative terms included.
 Solvent              : DiChloroEthane, Eps=  10.125000 Eps(inf)=   2.087447
 ------------------------------------------------------------------------------
 Spheres list:
 ISph  on   Nord     Re0    Alpha      Xe            Ye            Ze
    1  Br      1    2.0945  1.100     -0.877487     -0.212941     -0.014731
    2   C      2    1.9255  1.100      1.110761      0.247829      0.485770
    3   C      3    1.9255  1.100      0.391935      1.316491     -0.173147
    4   C      4    1.9255  1.100      2.125600     -0.587357     -0.187837
    5   H      5    1.4430  1.100      0.012231      2.139701      0.416939
    6   H      6    1.4430  1.100      0.585561      1.506618     -1.221350
    7   H      7    1.4430  1.100      1.977214     -0.649199     -1.263344
    8   H      8    1.4430  1.100      3.081383     -0.086434      0.008461
    9   H      9    1.4430  1.100      2.180035     -1.578633      0.256310
   10   H     10    1.4430  1.100      1.105858      0.259111      1.569860
 ------------------------------------------------------------------------------
 One-electron integrals computed using PRISM.
   1 Symmetry operations used in ECPInt.
 ECPInt:  NShTT=    2701 NPrTT=    9330 LenC2=    2686 LenP2D=    7712.
 LDataN:  DoStor=T MaxTD1= 6 Len=  172
 NBasis=   177 RedAO= T EigKep=  2.54D-04  NBF=   177
 NBsUse=   177 1.00D-06 EigRej= -1.00D+00 NBFU=   177
 Initial guess from the checkpoint file:  "c5.chk"
 B after Tr=    -0.000000   -0.000000   -0.000000
         Rot=    1.000000   -0.000059    0.000209   -0.000132 Ang=  -0.03 deg.
 Keep R1 ints in memory in canonical form, NReq=287941379.
 Requested convergence on RMS density matrix=1.00D-08 within 128 cycles.
 Requested convergence on MAX density matrix=1.00D-06.
 Requested convergence on             energy=1.00D-06.
 No special actions if energy rises.
 Inv3:  Mode=1 IEnd=     2928432.
 Iteration    1 A*A^-1 deviation from unit magnitude is 2.89D-15 for    957.
 Iteration    1 A*A^-1 deviation from orthogonality  is 1.43D-15 for    627    422.
 Iteration    1 A^-1*A deviation from unit magnitude is 2.89D-15 for    459.
 Iteration    1 A^-1*A deviation from orthogonality  is 1.02D-15 for    568    102.
 Error on total polarization charges =  0.00597
 SCF Done:  E(RwB97XD) =  -2691.91247633     A.U. after    9 cycles
            NFock=  9  Conv=0.51D-08     -V/T= 2.0016
   1 Symmetry operations used in ECPInt.
 ECPInt:  NShTT=    2701 NPrTT=    9330 LenC2=    2686 LenP2D=    7712.
 LDataN:  DoStor=T MaxTD1= 7 Len=  274
 D1PCM: C-PCM CHGder 1st derivatives, ID1Alg=3 FixD1E=F DoIter=F DoCFld=F I1PDM=0.
 Calling FoFJK, ICntrl=      2127 FMM=F ISym2X=0 I1Cent= 0 IOpClX= 0 NMat=1 NMatS=1 NMatT=0.
 ***** Axes restored to original set *****
 -------------------------------------------------------------------
 Center     Atomic                   Forces (Hartrees/Bohr)
 Number     Number              X              Y              Z
 -------------------------------------------------------------------
      1       35          -0.000247656   -0.000051152    0.000065775
      2        6           0.000104673   -0.000404759    0.000388769
      3        6          -0.000043665    0.000572602   -0.000586431
      4        6          -0.000447342   -0.000264790    0.000063497
      5        1          -0.000039465   -0.000225752    0.000175254
      6        1           0.000050495   -0.000066751    0.000114298
      7        1           0.000055176    0.000062692   -0.000144577
      8        1           0.000252751    0.000194505    0.000067301
      9        1           0.000185089    0.000142330   -0.000037303
     10        1           0.000129944    0.000041076   -0.000106584
 -------------------------------------------------------------------
 Cartesian Forces:  Max     0.000586431 RMS     0.000235614

 GradGradGradGradGradGradGradGradGradGradGradGradGradGradGradGradGradGrad
 Berny optimization.
 Using GEDIIS/GDIIS optimizer.
 FormGI is forming the generalized inverse of G from B-inverse, IUseBI=4.
 Internal  Forces:  Max     0.000345022 RMS     0.000140385
 Search for a local minimum.
 Step number   9 out of a maximum of   49
 All quantities printed in internal units (Hartrees-Bohrs-Radians)
 Mixed Optimization -- En-DIIS/RFO-DIIS
 Swapping is turned off.
 Update second derivatives using D2CorX and points    6    7    8    9
 DE= -1.22D-05 DEPred=-8.31D-06 R= 1.46D+00
 TightC=F SS=  1.41D+00  RLast= 1.93D-02 DXNew= 3.9686D+00 5.7825D-02
 Trust test= 1.46D+00 RLast= 1.93D-02 DXMaxT set to 2.36D+00
 ITU=  1  1  1  1  1  1  1  1  0
     Eigenvalues ---    0.00218   0.01768   0.03139   0.04185   0.05092
     Eigenvalues ---    0.05632   0.08094   0.12131   0.13902   0.15913
     Eigenvalues ---    0.16002   0.16260   0.16666   0.17835   0.19052
     Eigenvalues ---    0.21205   0.33289   0.35727   0.36023   0.36748
     Eigenvalues ---    0.37176   0.37321   0.37768   0.40096
 En-DIIS/RFO-DIIS/Sim-DIIS IScMMF=       -3 using points:     9    8    7    6
 RFO step:  Lambda=-1.01137688D-05.
 DidBck=F Rises=F RFO-DIIS coefs:    1.64087   -0.48391   -0.30166    0.14470
 Iteration  1 RMS(Cart)=  0.00316224 RMS(Int)=  0.00001080
 Iteration  2 RMS(Cart)=  0.00000736 RMS(Int)=  0.00000771
 Iteration  3 RMS(Cart)=  0.00000000 RMS(Int)=  0.00000771
 Variable       Old X    -DE/DX   Delta X   Delta X   Delta X     New X
                                 (Linear)    (Quad)   (Total)
    R1        3.97110  -0.00035  -0.00992   0.00202  -0.00791   3.96319
    R2        3.76795   0.00016   0.00071   0.00133   0.00204   3.76999
    R3        2.73385   0.00027   0.00002   0.00102   0.00104   2.73489
    R4        2.79090   0.00000   0.00197  -0.00069   0.00128   2.79218
    R5        2.04876  -0.00006  -0.00011  -0.00013  -0.00024   2.04853
    R6        2.04410  -0.00003   0.00003  -0.00010  -0.00007   2.04403
    R7        2.04612  -0.00006  -0.00024  -0.00005  -0.00029   2.04583
    R8        2.05499   0.00005  -0.00004   0.00036   0.00032   2.05531
    R9        2.07266  -0.00024  -0.00094  -0.00021  -0.00115   2.07150
   R10        2.05525  -0.00011   0.00013  -0.00043  -0.00030   2.05495
    A1        2.00151  -0.00014   0.00060  -0.00117  -0.00056   2.00095
    A2        1.80921  -0.00007   0.00166  -0.00103   0.00064   1.80985
    A3        2.15487  -0.00027  -0.00066  -0.00103  -0.00169   2.15317
    A4        2.03253  -0.00003  -0.00028  -0.00105  -0.00134   2.03119
    A5        2.05450   0.00029  -0.00072   0.00253   0.00180   2.05630
    A6        1.89329  -0.00000  -0.00063  -0.00084  -0.00147   1.89182
    A7        1.90229   0.00003  -0.00060  -0.00013  -0.00072   1.90157
    A8        2.08074  -0.00026   0.00046  -0.00159  -0.00114   2.07960
    A9        2.07349   0.00008   0.00105  -0.00009   0.00094   2.07443
   A10        2.04570   0.00023   0.00082   0.00173   0.00253   2.04823
   A11        1.97087  -0.00021  -0.00113  -0.00149  -0.00263   1.96824
   A12        1.83268   0.00014   0.00193   0.00036   0.00230   1.83498
   A13        1.94288   0.00003  -0.00044   0.00082   0.00038   1.94326
   A14        1.89852  -0.00007   0.00023  -0.00158  -0.00135   1.89717
   A15        1.93787   0.00005  -0.00108   0.00013  -0.00095   1.93692
   A16        1.87503   0.00008   0.00077   0.00187   0.00265   1.87768
    D1       -2.67797  -0.00009  -0.00023  -0.00179  -0.00203  -2.68000
    D2        0.02506   0.00007   0.00568  -0.00122   0.00445   0.02951
    D3        0.15125  -0.00007  -0.00654   0.00031  -0.00622   0.14503
    D4        2.85428   0.00010  -0.00063   0.00087   0.00026   2.85454
    D5        0.86987   0.00002   0.00316   0.00142   0.00458   0.87445
    D6        2.93582  -0.00010   0.00406  -0.00106   0.00299   2.93881
    D7       -1.32373   0.00009   0.00586   0.00175   0.00760  -1.31612
    D8       -0.45249   0.00002  -0.00084   0.00262   0.00178  -0.45070
    D9        1.61347  -0.00009   0.00005   0.00014   0.00019   1.61366
   D10       -2.64608   0.00009   0.00185   0.00295   0.00481  -2.64128
   D11        3.00513   0.00005   0.00546   0.00111   0.00657   3.01170
   D12       -1.21211  -0.00006   0.00635  -0.00138   0.00498  -1.20713
   D13        0.81153   0.00012   0.00815   0.00144   0.00959   0.82112
         Item               Value     Threshold  Converged?
 Maximum Force            0.000345     0.000450     YES
 RMS     Force            0.000140     0.000300     YES
 Maximum Displacement     0.008631     0.001800     NO 
 RMS     Displacement     0.003162     0.001200     NO 
 Predicted change in Energy=-5.040911D-06
 GradGradGradGradGradGradGradGradGradGradGradGradGradGradGradGradGradGrad

                          Input orientation:                          
 ---------------------------------------------------------------------
 Center     Atomic      Atomic             Coordinates (Angstroms)
 Number     Number       Type             X           Y           Z
 ---------------------------------------------------------------------
      1         35           0        4.314676   -3.226253    4.064344
      2          6           0        2.266504   -3.246416    3.613845
      3          6           0        3.107086   -2.724226    2.557792
      4          6           0        1.434990   -2.393059    4.487658
      5          1           0        3.339726   -3.353805    1.709569
      6          1           0        3.155699   -1.652820    2.410254
      7          1           0        1.823360   -1.381448    4.581149
      8          1           0        0.455589   -2.349590    3.997227
      9          1           0        1.292919   -2.847423    5.465350
     10          1           0        2.025830   -4.302041    3.560342
 ---------------------------------------------------------------------
                    Distance matrix (angstroms):
                    1          2          3          4          5
     1  Br   0.000000
     2  C    2.097227   0.000000
     3  C    1.994995   1.447241   0.000000
     4  C    3.027540   1.477560   2.574871   0.000000
     5  H    2.551815   2.188516   1.081653   3.502689   0.000000
     6  H    2.560260   2.186057   1.082608   2.797213   1.848830
     7  H    3.142777   2.147128   2.746812   1.087626   3.799411
     8  H    3.957978   2.056865   3.040190   1.096192   3.815766
     9  H    3.352214   2.129585   3.429325   1.087434   4.307172
    10  H    2.578788   1.084034   2.159564   2.203003   2.459844
                    6          7          8          9         10
     6  H    0.000000
     7  H    2.561553   0.000000
     8  H    3.208514   1.774559   0.000000
     9  H    3.772352   1.792279   1.761915   0.000000
    10  H    3.101238   3.100469   2.543343   2.506417   0.000000
 Stoichiometry    C3H6Br(1+)
 Framework group  C1[X(C3H6Br)]
 Deg. of freedom    24
 Full point group                 C1      NOp   1
 Largest Abelian subgroup         C1      NOp   1
 Largest concise Abelian subgroup C1      NOp   1
                         Standard orientation:                         
 ---------------------------------------------------------------------
 Center     Atomic      Atomic             Coordinates (Angstroms)
 Number     Number       Type             X           Y           Z
 ---------------------------------------------------------------------
      1         35           0       -0.876139   -0.213121   -0.014921
      2          6           0        1.107503    0.247244    0.486671
      3          6           0        0.392373    1.318479   -0.173292
      4          6           0        2.123172   -0.587852   -0.187284
      5          1           0        0.011024    2.140025    0.417985
      6          1           0        0.585919    1.507773   -1.221505
      7          1           0        1.975702   -0.643576   -1.263423
      8          1           0        3.079864   -0.090831    0.011080
      9          1           0        2.172334   -1.581877    0.250905
     10          1           0        1.101724    0.260487    1.570609
 ---------------------------------------------------------------------
 Rotational constants (GHZ):          10.4424146           3.1892488           2.6893645
 Standard basis: def2TZVP (5D, 7F)
 There are   199 symmetry adapted cartesian basis functions of A   symmetry.
 There are   177 symmetry adapted basis functions of A   symmetry.
   177 basis functions,   315 primitive gaussians,   199 cartesian basis functions
    29 alpha electrons       29 beta electrons
       nuclear repulsion energy       252.7196864275 Hartrees.
 NAtoms=   10 NActive=   10 NUniq=   10 SFac= 1.00D+00 NAtFMM=   60 NAOKFM=F Big=F
 Integral buffers will be    131072 words long.
 Raffenetti 2 integral format.
 Two-electron integral symmetry is turned on.
 Nuclear repulsion after empirical dispersion term =      252.7161617927 Hartrees.
 ------------------------------------------------------------------------------
 Polarizable Continuum Model (PCM)
 =================================
 Model                : C-PCM.
 Atomic radii         : UFF (Universal Force Field).
 Polarization charges : Total charges.
 Charge compensation  : None.
 Solution method      : On-the-fly selection.
 Cavity type          : Scaled VdW (van der Waals Surface) (Alpha=1.100).
 Cavity algorithm     : GePol (No added spheres)
                        Default sphere list used, NSphG=   10.
                        Lebedev-Laikov grids with approx.  5.0 points / Ang**2.
                        Smoothing algorithm: York/Karplus (Gamma=1.0000).
                        Polarization charges: spherical gaussians, with
                                              point-specific exponents (IZeta= 3).
                        Self-potential: point-specific (ISelfS= 7).
                        Self-field    : sphere-specific E.n sum rule (ISelfD= 2).
 1st derivatives      : Analytical E(r).r(x)/FMM algorithm (CHGder, D1EAlg=3).
                        Cavity 1st derivative terms included.
 Solvent              : DiChloroEthane, Eps=  10.125000 Eps(inf)=   2.087447
 ------------------------------------------------------------------------------
 Spheres list:
 ISph  on   Nord     Re0    Alpha      Xe            Ye            Ze
    1  Br      1    2.0945  1.100     -0.876139     -0.213121     -0.014921
    2   C      2    1.9255  1.100      1.107503      0.247244      0.486671
    3   C      3    1.9255  1.100      0.392373      1.318479     -0.173292
    4   C      4    1.9255  1.100      2.123172     -0.587852     -0.187284
    5   H      5    1.4430  1.100      0.011024      2.140025      0.417985
    6   H      6    1.4430  1.100      0.585919      1.507773     -1.221505
    7   H      7    1.4430  1.100      1.975702     -0.643576     -1.263423
    8   H      8    1.4430  1.100      3.079864     -0.090831      0.011080
    9   H      9    1.4430  1.100      2.172334     -1.581877      0.250905
   10   H     10    1.4430  1.100      1.101724      0.260487      1.570609
 ------------------------------------------------------------------------------
 One-electron integrals computed using PRISM.
   1 Symmetry operations used in ECPInt.
 ECPInt:  NShTT=    2701 NPrTT=    9330 LenC2=    2686 LenP2D=    7712.
 LDataN:  DoStor=T MaxTD1= 6 Len=  172
 NBasis=   177 RedAO= T EigKep=  2.54D-04  NBF=   177
 NBsUse=   177 1.00D-06 EigRej= -1.00D+00 NBFU=   177
 Initial guess from the checkpoint file:  "c5.chk"
 B after Tr=     0.000000    0.000000    0.000000
         Rot=    1.000000   -0.000320    0.000172    0.000069 Ang=  -0.04 deg.
 Keep R1 ints in memory in canonical form, NReq=287941379.
 Requested convergence on RMS density matrix=1.00D-08 within 128 cycles.
 Requested convergence on MAX density matrix=1.00D-06.
 Requested convergence on             energy=1.00D-06.
 No special actions if energy rises.
 Inv3:  Mode=1 IEnd=     2916588.
 Iteration    1 A*A^-1 deviation from unit magnitude is 3.66D-15 for    976.
 Iteration    1 A*A^-1 deviation from orthogonality  is 1.19D-15 for    587    113.
 Iteration    1 A^-1*A deviation from unit magnitude is 3.66D-15 for    976.
 Iteration    1 A^-1*A deviation from orthogonality  is 1.28D-15 for    678    560.
 Error on total polarization charges =  0.00596
 SCF Done:  E(RwB97XD) =  -2691.91248209     A.U. after    9 cycles
            NFock=  9  Conv=0.41D-08     -V/T= 2.0016
   1 Symmetry operations used in ECPInt.
 ECPInt:  NShTT=    2701 NPrTT=    9330 LenC2=    2686 LenP2D=    7712.
 LDataN:  DoStor=T MaxTD1= 7 Len=  274
 D1PCM: C-PCM CHGder 1st derivatives, ID1Alg=3 FixD1E=F DoIter=F DoCFld=F I1PDM=0.
 Calling FoFJK, ICntrl=      2127 FMM=F ISym2X=0 I1Cent= 0 IOpClX= 0 NMat=1 NMatS=1 NMatT=0.
 ***** Axes restored to original set *****
 -------------------------------------------------------------------
 Center     Atomic                   Forces (Hartrees/Bohr)
 Number     Number              X              Y              Z
 -------------------------------------------------------------------
      1       35           0.000043324    0.000004533    0.000034485
      2        6          -0.000105855   -0.000079831    0.000043513
      3        6          -0.000016338    0.000073206   -0.000101787
      4        6           0.000046260   -0.000012147   -0.000007575
      5        1          -0.000035718   -0.000062746    0.000042270
      6        1           0.000001165   -0.000010062    0.000004701
      7        1           0.000025982    0.000016353   -0.000015739
      8        1           0.000004552    0.000026287   -0.000003131
      9        1           0.000036696    0.000038705   -0.000018791
     10        1          -0.000000070    0.000005703    0.000022054
 -------------------------------------------------------------------
 Cartesian Forces:  Max     0.000105855 RMS     0.000042286

 GradGradGradGradGradGradGradGradGradGradGradGradGradGradGradGradGradGrad
 Berny optimization.
 Using GEDIIS/GDIIS optimizer.
 FormGI is forming the generalized inverse of G from B-inverse, IUseBI=4.
 Internal  Forces:  Max     0.000074308 RMS     0.000026204
 Search for a local minimum.
 Step number  10 out of a maximum of   49
 All quantities printed in internal units (Hartrees-Bohrs-Radians)
 Mixed Optimization -- En-DIIS/RFO-DIIS
 Swapping is turned off.
 Update second derivatives using D2CorX and points    6    7    8    9   10
 DE= -5.76D-06 DEPred=-5.04D-06 R= 1.14D+00
 TightC=F SS=  1.41D+00  RLast= 2.12D-02 DXNew= 3.9686D+00 6.3632D-02
 Trust test= 1.14D+00 RLast= 2.12D-02 DXMaxT set to 2.36D+00
 ITU=  1  1  1  1  1  1  1  1  1  0
     Eigenvalues ---    0.00229   0.01743   0.03154   0.04088   0.05102
     Eigenvalues ---    0.05388   0.08181   0.12115   0.13436   0.15918
     Eigenvalues ---    0.15996   0.16294   0.16668   0.17767   0.19050
     Eigenvalues ---    0.20796   0.32718   0.35742   0.36005   0.36774
     Eigenvalues ---    0.37185   0.37321   0.37849   0.40194
 En-DIIS/RFO-DIIS/Sim-DIIS IScMMF=       -3 using points:    10    9    8    7    6
 RFO step:  Lambda=-1.83417058D-07.
 DidBck=F Rises=F RFO-DIIS coefs:    1.01992   -0.01689   -0.01385   -0.00561    0.01642
 Iteration  1 RMS(Cart)=  0.00047018 RMS(Int)=  0.00000221
 Iteration  2 RMS(Cart)=  0.00000016 RMS(Int)=  0.00000220
 Variable       Old X    -DE/DX   Delta X   Delta X   Delta X     New X
                                 (Linear)    (Quad)   (Total)
    R1        3.96319   0.00001   0.00052  -0.00004   0.00047   3.96366
    R2        3.76999   0.00005   0.00006   0.00020   0.00026   3.77026
    R3        2.73489   0.00002   0.00015  -0.00002   0.00013   2.73502
    R4        2.79218  -0.00007  -0.00004  -0.00017  -0.00020   2.79198
    R5        2.04853  -0.00001  -0.00004   0.00001  -0.00002   2.04850
    R6        2.04403  -0.00002  -0.00000  -0.00004  -0.00005   2.04398
    R7        2.04583   0.00001  -0.00004   0.00005   0.00000   2.04584
    R8        2.05531   0.00001   0.00001   0.00003   0.00004   2.05536
    R9        2.07150   0.00001  -0.00008   0.00009   0.00001   2.07151
   R10        2.05495  -0.00003  -0.00007  -0.00004  -0.00010   2.05485
    A1        2.00095  -0.00004  -0.00007  -0.00027  -0.00033   2.00062
    A2        1.80985   0.00001  -0.00025   0.00013  -0.00012   1.80973
    A3        2.15317  -0.00006  -0.00021  -0.00012  -0.00033   2.15284
    A4        2.03119   0.00002  -0.00015   0.00015   0.00001   2.03120
    A5        2.05630   0.00004   0.00044  -0.00000   0.00044   2.05674
    A6        1.89182   0.00000  -0.00015  -0.00007  -0.00022   1.89160
    A7        1.90157  -0.00001  -0.00011  -0.00006  -0.00017   1.90140
    A8        2.07960  -0.00006  -0.00026  -0.00013  -0.00039   2.07921
    A9        2.07443   0.00001   0.00005   0.00002   0.00007   2.07449
   A10        2.04823   0.00005   0.00023   0.00017   0.00040   2.04863
   A11        1.96824  -0.00001  -0.00026   0.00008  -0.00018   1.96806
   A12        1.83498   0.00000   0.00013  -0.00002   0.00011   1.83509
   A13        1.94326  -0.00002   0.00017  -0.00017   0.00000   1.94326
   A14        1.89717   0.00000  -0.00035   0.00017  -0.00018   1.89699
   A15        1.93692   0.00001   0.00002  -0.00005  -0.00003   1.93689
   A16        1.87768   0.00002   0.00030   0.00000   0.00031   1.87798
    D1       -2.68000  -0.00001  -0.00014  -0.00033  -0.00047  -2.68047
    D2        0.02951  -0.00000  -0.00004  -0.00014  -0.00018   0.02933
    D3        0.14503  -0.00000   0.00025  -0.00022   0.00004   0.14507
    D4        2.85454   0.00001   0.00035  -0.00002   0.00034   2.85488
    D5        0.87445  -0.00002  -0.00076  -0.00015  -0.00091   0.87354
    D6        2.93881  -0.00002  -0.00123   0.00009  -0.00115   2.93766
    D7       -1.31612  -0.00001  -0.00071  -0.00001  -0.00073  -1.31685
    D8       -0.45070   0.00001  -0.00048  -0.00007  -0.00056  -0.45126
    D9        1.61366   0.00000  -0.00096   0.00016  -0.00080   1.61286
   D10       -2.64128   0.00002  -0.00044   0.00007  -0.00037  -2.64165
   D11        3.01170  -0.00000  -0.00079  -0.00022  -0.00100   3.01069
   D12       -1.20713  -0.00001  -0.00127   0.00002  -0.00125  -1.20838
   D13        0.82112   0.00001  -0.00075  -0.00007  -0.00082   0.82030
         Item               Value     Threshold  Converged?
 Maximum Force            0.000074     0.000450     YES
 RMS     Force            0.000026     0.000300     YES
 Maximum Displacement     0.001384     0.001800     YES
 RMS     Displacement     0.000470     0.001200     YES
 Predicted change in Energy=-9.142308D-08
 Optimization completed.
    -- Stationary point found.
                           ----------------------------
                           !   Optimized Parameters   !
                           ! (Angstroms and Degrees)  !
 --------------------------                            --------------------------
 ! Name  Definition              Value          Derivative Info.                !
 --------------------------------------------------------------------------------
 ! R1    R(1,2)                  2.0972         -DE/DX =    0.0                 !
 ! R2    R(1,3)                  1.995          -DE/DX =    0.0001              !
 ! R3    R(2,3)                  1.4472         -DE/DX =    0.0                 !
 ! R4    R(2,4)                  1.4776         -DE/DX =   -0.0001              !
 ! R5    R(2,10)                 1.084          -DE/DX =    0.0                 !
 ! R6    R(3,5)                  1.0817         -DE/DX =    0.0                 !
 ! R7    R(3,6)                  1.0826         -DE/DX =    0.0                 !
 ! R8    R(4,7)                  1.0876         -DE/DX =    0.0                 !
 ! R9    R(4,8)                  1.0962         -DE/DX =    0.0                 !
 ! R10   R(4,9)                  1.0874         -DE/DX =    0.0                 !
 ! A1    A(1,2,4)              114.646          -DE/DX =    0.0                 !
 ! A2    A(1,2,10)             103.697          -DE/DX =    0.0                 !
 ! A3    A(3,2,4)              123.3677         -DE/DX =   -0.0001              !
 ! A4    A(3,2,10)             116.3784         -DE/DX =    0.0                 !
 ! A5    A(4,2,10)             117.8174         -DE/DX =    0.0                 !
 ! A6    A(1,3,5)              108.3932         -DE/DX =    0.0                 !
 ! A7    A(1,3,6)              108.9518         -DE/DX =    0.0                 !
 ! A8    A(2,3,5)              119.1522         -DE/DX =   -0.0001              !
 ! A9    A(2,3,6)              118.8559         -DE/DX =    0.0                 !
 ! A10   A(5,3,6)              117.3549         -DE/DX =    0.0                 !
 ! A11   A(2,4,7)              112.7719         -DE/DX =    0.0                 !
 ! A12   A(2,4,8)              105.1366         -DE/DX =    0.0                 !
 ! A13   A(2,4,9)              111.3408         -DE/DX =    0.0                 !
 ! A14   A(7,4,8)              108.6999         -DE/DX =    0.0                 !
 ! A15   A(7,4,9)              110.9773         -DE/DX =    0.0                 !
 ! A16   A(8,4,9)              107.5829         -DE/DX =    0.0                 !
 ! D1    D(4,2,3,5)           -153.5526         -DE/DX =    0.0                 !
 ! D2    D(4,2,3,6)              1.6908         -DE/DX =    0.0                 !
 ! D3    D(10,2,3,5)             8.3096         -DE/DX =    0.0                 !
 ! D4    D(10,2,3,6)           163.553          -DE/DX =    0.0                 !
 ! D5    D(1,2,4,7)             50.1023         -DE/DX =    0.0                 !
 ! D6    D(1,2,4,8)            168.3812         -DE/DX =    0.0                 !
 ! D7    D(1,2,4,9)            -75.4084         -DE/DX =    0.0                 !
 ! D8    D(3,2,4,7)            -25.8233         -DE/DX =    0.0                 !
 ! D9    D(3,2,4,8)             92.4557         -DE/DX =    0.0                 !
 ! D10   D(3,2,4,9)           -151.3339         -DE/DX =    0.0                 !
 ! D11   D(10,2,4,7)           172.5574         -DE/DX =    0.0                 !
 ! D12   D(10,2,4,8)           -69.1636         -DE/DX =    0.0                 !
 ! D13   D(10,2,4,9)            47.0468         -DE/DX =    0.0                 !
 --------------------------------------------------------------------------------
 GradGradGradGradGradGradGradGradGradGradGradGradGradGradGradGradGradGrad

                          Input orientation:                          
 ---------------------------------------------------------------------
 Center     Atomic      Atomic             Coordinates (Angstroms)
 Number     Number       Type             X           Y           Z
 ---------------------------------------------------------------------
      1         35           0        4.314676   -3.226253    4.064344
      2          6           0        2.266504   -3.246416    3.613845
      3          6           0        3.107086   -2.724226    2.557792
      4          6           0        1.434990   -2.393059    4.487658
      5          1           0        3.339726   -3.353805    1.709569
      6          1           0        3.155699   -1.652820    2.410254
      7          1           0        1.823360   -1.381448    4.581149
      8          1           0        0.455589   -2.349590    3.997227
      9          1           0        1.292919   -2.847423    5.465350
     10          1           0        2.025830   -4.302041    3.560342
 ---------------------------------------------------------------------
                    Distance matrix (angstroms):
                    1          2          3          4          5
     1  Br   0.000000
     2  C    2.097227   0.000000
     3  C    1.994995   1.447241   0.000000
     4  C    3.027540   1.477560   2.574871   0.000000
     5  H    2.551815   2.188516   1.081653   3.502689   0.000000
     6  H    2.560260   2.186057   1.082608   2.797213   1.848830
     7  H    3.142777   2.147128   2.746812   1.087626   3.799411
     8  H    3.957978   2.056865   3.040190   1.096192   3.815766
     9  H    3.352214   2.129585   3.429325   1.087434   4.307172
    10  H    2.578788   1.084034   2.159564   2.203003   2.459844
                    6          7          8          9         10
     6  H    0.000000
     7  H    2.561553   0.000000
     8  H    3.208514   1.774559   0.000000
     9  H    3.772352   1.792279   1.761915   0.000000
    10  H    3.101238   3.100469   2.543343   2.506417   0.000000
 Stoichiometry    C3H6Br(1+)
 Framework group  C1[X(C3H6Br)]
 Deg. of freedom    24
 Full point group                 C1      NOp   1
 Largest Abelian subgroup         C1      NOp   1
 Largest concise Abelian subgroup C1      NOp   1
                         Standard orientation:                         
 ---------------------------------------------------------------------
 Center     Atomic      Atomic             Coordinates (Angstroms)
 Number     Number       Type             X           Y           Z
 ---------------------------------------------------------------------
      1         35           0       -0.876139   -0.213121   -0.014921
      2          6           0        1.107503    0.247244    0.486671
      3          6           0        0.392373    1.318479   -0.173292
      4          6           0        2.123172   -0.587852   -0.187284
      5          1           0        0.011024    2.140025    0.417985
      6          1           0        0.585919    1.507773   -1.221505
      7          1           0        1.975702   -0.643576   -1.263423
      8          1           0        3.079864   -0.090831    0.011080
      9          1           0        2.172334   -1.581877    0.250905
     10          1           0        1.101724    0.260487    1.570609
 ---------------------------------------------------------------------
 Rotational constants (GHZ):          10.4424146           3.1892488           2.6893645

 **********************************************************************

            Population analysis using the SCF Density.

 **********************************************************************

 Orbital symmetries:
       Occupied  (A) (A) (A) (A) (A) (A) (A) (A) (A) (A) (A) (A)
                 (A) (A) (A) (A) (A) (A) (A) (A) (A) (A) (A) (A)
                 (A) (A) (A) (A) (A)
       Virtual   (A) (A) (A) (A) (A) (A) (A) (A) (A) (A) (A) (A)
                 (A) (A) (A) (A) (A) (A) (A) (A) (A) (A) (A) (A)
                 (A) (A) (A) (A) (A) (A) (A) (A) (A) (A) (A) (A)
                 (A) (A) (A) (A) (A) (A) (A) (A) (A) (A) (A) (A)
                 (A) (A) (A) (A) (A) (A) (A) (A) (A) (A) (A) (A)
                 (A) (A) (A) (A) (A) (A) (A) (A) (A) (A) (A) (A)
                 (A) (A) (A) (A) (A) (A) (A) (A) (A) (A) (A) (A)
                 (A) (A) (A) (A) (A) (A) (A) (A) (A) (A) (A) (A)
                 (A) (A) (A) (A) (A) (A) (A) (A) (A) (A) (A) (A)
                 (A) (A) (A) (A) (A) (A) (A) (A) (A) (A) (A) (A)
                 (A) (A) (A) (A) (A) (A) (A) (A) (A) (A) (A) (A)
                 (A) (A) (A) (A) (A) (A) (A) (A) (A) (A) (A) (A)
                 (A) (A) (A) (A)
 The electronic state is 1-A.
 Alpha  occ. eigenvalues -- -483.23446 -62.78172 -56.57318 -56.57017 -56.56846
 Alpha  occ. eigenvalues --  -10.44247 -10.42315 -10.33531  -8.92205  -6.74407
 Alpha  occ. eigenvalues --   -6.73429  -6.72896  -2.84821  -2.84627  -2.84200
 Alpha  occ. eigenvalues --   -2.83412  -2.83367  -1.06497  -0.91826  -0.85302
 Alpha  occ. eigenvalues --   -0.75379  -0.66028  -0.61235  -0.57794  -0.54263
 Alpha  occ. eigenvalues --   -0.52812  -0.50541  -0.46954  -0.44974
 Alpha virt. eigenvalues --   -0.04799  -0.02306   0.09624   0.11995   0.12748
 Alpha virt. eigenvalues --    0.14923   0.16318   0.16782   0.19516   0.21178
 Alpha virt. eigenvalues --    0.23014   0.24758   0.26085   0.27180   0.27500
 Alpha virt. eigenvalues --    0.29300   0.29638   0.31406   0.33418   0.35876
 Alpha virt. eigenvalues --    0.37849   0.39489   0.40530   0.44043   0.44598
 Alpha virt. eigenvalues --    0.46370   0.47203   0.48002   0.49834   0.51292
 Alpha virt. eigenvalues --    0.52647   0.54839   0.56435   0.60854   0.68912
 Alpha virt. eigenvalues --    0.70281   0.75254   0.76168   0.83452   0.85650
 Alpha virt. eigenvalues --    0.90320   0.91720   0.95607   0.99674   1.02176
 Alpha virt. eigenvalues --    1.02954   1.06711   1.11499   1.13964   1.17015
 Alpha virt. eigenvalues --    1.20026   1.27721   1.32249   1.33299   1.36587
 Alpha virt. eigenvalues --    1.39186   1.40933   1.46293   1.49326   1.51042
 Alpha virt. eigenvalues --    1.54063   1.55612   1.55957   1.56840   1.57486
 Alpha virt. eigenvalues --    1.59518   1.60030   1.62784   1.63293   1.65407
 Alpha virt. eigenvalues --    1.67353   1.68981   1.69604   1.75233   1.76287
 Alpha virt. eigenvalues --    1.82701   1.83086   1.91946   1.94336   1.98877
 Alpha virt. eigenvalues --    2.02989   2.09442   2.17225   2.22793   2.24998
 Alpha virt. eigenvalues --    2.31446   2.33698   2.35270   2.40098   2.41261
 Alpha virt. eigenvalues --    2.43228   2.50250   2.51790   2.53150   2.57739
 Alpha virt. eigenvalues --    2.62458   2.63198   2.67327   2.70292   2.77044
 Alpha virt. eigenvalues --    2.79754   2.87613   2.89333   2.93545   2.96938
 Alpha virt. eigenvalues --    3.03691   3.05336   3.07669   3.11784   3.12213
 Alpha virt. eigenvalues --    3.15224   3.21515   3.25624   3.29169   3.30310
 Alpha virt. eigenvalues --    3.38194   3.39208   3.41664   3.46489   3.49675
 Alpha virt. eigenvalues --    3.51650   3.53668   3.60959   3.72603   3.77019
 Alpha virt. eigenvalues --    3.89107   3.91517   4.00190   4.02822   4.04836
 Alpha virt. eigenvalues --    4.11408   4.16307   4.17750   4.19747   4.30441
 Alpha virt. eigenvalues --    4.42685   4.45295   4.51732   4.55998   4.62944
 Alpha virt. eigenvalues --    4.63545   4.72414   4.77953   4.93015   7.57851
 Alpha virt. eigenvalues --   22.28504  22.35519  22.52741
          Condensed to atoms (all electrons):
               1          2          3          4          5          6
     1  Br  34.479194   0.153666   0.174149  -0.021973  -0.014838  -0.016918
     2  C    0.153666   4.880668   0.323636   0.335615  -0.016285  -0.019290
     3  C    0.174149   0.323636   4.887262  -0.004798   0.398515   0.399438
     4  C   -0.021973   0.335615  -0.004798   4.854832  -0.000073   0.000949
     5  H   -0.014838  -0.016285   0.398515  -0.000073   0.410950  -0.006115
     6  H   -0.016918  -0.019290   0.399438   0.000949  -0.006115   0.413417
     7  H   -0.000675  -0.022977  -0.001208   0.400566   0.000352  -0.000388
     8  H    0.004288  -0.017764  -0.005759   0.388920   0.000069   0.000035
     9  H   -0.004588  -0.030767   0.005886   0.414594  -0.000147   0.000034
    10  H   -0.017815   0.404080  -0.027453  -0.019011  -0.000241   0.000533
               7          8          9         10
     1  Br  -0.000675   0.004288  -0.004588  -0.017815
     2  C   -0.022977  -0.017764  -0.030767   0.404080
     3  C   -0.001208  -0.005759   0.005886  -0.027453
     4  C    0.400566   0.388920   0.414594  -0.019011
     5  H    0.000352   0.000069  -0.000147  -0.000241
     6  H   -0.000388   0.000035   0.000034   0.000533
     7  H    0.489018  -0.014663  -0.019243   0.003936
     8  H   -0.014663   0.474605  -0.014160  -0.002761
     9  H   -0.019243  -0.014160   0.474147  -0.004830
    10  H    0.003936  -0.002761  -0.004830   0.426863
 Mulliken charges:
               1
     1  Br   0.265510
     2  C    0.009417
     3  C   -0.149669
     4  C   -0.349622
     5  H    0.227813
     6  H    0.228305
     7  H    0.165282
     8  H    0.187190
     9  H    0.179076
    10  H    0.236700
 Sum of Mulliken charges =   1.00000
 Mulliken charges with hydrogens summed into heavy atoms:
               1
     1  Br   0.265510
     2  C    0.246117
     3  C    0.306448
     4  C    0.181925
 Electronic spatial extent (au):  <R**2>=            469.3783
 Charge=              1.0000 electrons
 Dipole moment (field-independent basis, Debye):
    X=              3.0669    Y=              2.0527    Z=              0.4750  Tot=              3.7209
 Quadrupole moment (field-independent basis, Debye-Ang):
   XX=            -24.8024   YY=            -28.2514   ZZ=            -31.7650
   XY=              0.7842   XZ=              0.8447   YZ=             -0.3714
 Traceless Quadrupole moment (field-independent basis, Debye-Ang):
   XX=              3.4705   YY=              0.0215   ZZ=             -3.4921
   XY=              0.7842   XZ=              0.8447   YZ=             -0.3714
 Octapole moment (field-independent basis, Debye-Ang**2):
  XXX=            -10.8399  YYY=              2.7727  ZZZ=              0.4753  XYY=             -6.4110
  XXY=             -5.6257  XXZ=              0.2795  XZZ=             -4.2603  YZZ=              0.7853
  YYZ=              0.3662  XYZ=             -0.3175
 Hexadecapole moment (field-independent basis, Debye-Ang**3):
 XXXX=           -303.3499 YYYY=           -111.7846 ZZZZ=            -55.2222 XXXY=              6.2620
 XXXZ=              4.2184 YYYX=              4.7194 YYYZ=             -0.2794 ZZZX=              1.6383
 ZZZY=             -1.2057 XXYY=            -76.8907 XXZZ=            -67.8186 YYZZ=            -29.9559
 XXYZ=              0.1621 YYXZ=             -0.4545 ZZXY=              3.0793
 N-N= 2.527161617927D+02 E-N=-6.915876131295D+03  KE= 2.687603401621D+03
 ******************************Gaussian NBO Version 3.1******************************
             N A T U R A L   A T O M I C   O R B I T A L   A N D
          N A T U R A L   B O N D   O R B I T A L   A N A L Y S I S
 ******************************Gaussian NBO Version 3.1******************************
       /RESON  / : Allow strongly delocalized NBO set

 Analyzing the SCF density

 Job title: bromonium                                                       

 Storage needed:     94857 in NPA,    125995 in NBO (4831837608 available)
 GSVD:  LWork=        9705 too small for GESVD, short by       32625 words or       32625 for optimal perf.


 NATURAL POPULATIONS:  Natural atomic orbital occupancies 
                                                          
   NAO  Atom  No  lang   Type(AO)    Occupancy      Energy
 ----------------------------------------------------------
     1   Br    1  S      Cor( 1S)     2.00000    -471.55168
     2   Br    1  S      Cor( 2S)     2.00000     -71.55224
     3   Br    1  S      Cor( 3S)     1.99983     -11.60269
     4   Br    1  S      Val( 4S)     1.88588      -1.08171
     5   Br    1  S      Ryd( 5S)     0.00077       1.63357
     6   Br    1  S      Ryd( 6S)     0.00000       7.29535
     7   Br    1  px     Cor( 2p)     2.00000     -56.46455
     8   Br    1  px     Cor( 3p)     1.99995      -6.84138
     9   Br    1  px     Val( 4p)     1.31436      -0.37035
    10   Br    1  px     Ryd( 5p)     0.00088       0.51889
    11   Br    1  px     Ryd( 6p)     0.00003       1.56803
    12   Br    1  py     Cor( 2p)     2.00000     -56.46363
    13   Br    1  py     Cor( 3p)     1.99997      -6.83873
    14   Br    1  py     Val( 4p)     1.47686      -0.38939
    15   Br    1  py     Ryd( 5p)     0.00068       0.52588
    16   Br    1  py     Ryd( 6p)     0.00002       1.50713
    17   Br    1  pz     Cor( 2p)     2.00000     -56.46157
    18   Br    1  pz     Cor( 3p)     1.99999      -6.83301
    19   Br    1  pz     Val( 4p)     1.90224      -0.44707
    20   Br    1  pz     Ryd( 5p)     0.00083       0.51258
    21   Br    1  pz     Ryd( 6p)     0.00001       1.48743
    22   Br    1  dxy    Cor( 3d)     1.99978      -2.84491
    23   Br    1  dxy    Ryd( 5d)     0.00194       1.48968
    24   Br    1  dxy    Ryd( 4d)     0.00012       1.36696
    25   Br    1  dxy    Ryd( 6d)     0.00001       4.21616
    26   Br    1  dxz    Cor( 3d)     1.99992      -2.83962
    27   Br    1  dxz    Ryd( 4d)     0.00109       1.03930
    28   Br    1  dxz    Ryd( 5d)     0.00006       1.36075
    29   Br    1  dxz    Ryd( 6d)     0.00001       4.08445
    30   Br    1  dyz    Cor( 3d)     1.99997      -2.83721
    31   Br    1  dyz    Ryd( 4d)     0.00083       0.82576
    32   Br    1  dyz    Ryd( 5d)     0.00008       1.23416
    33   Br    1  dyz    Ryd( 6d)     0.00000       4.02249
    34   Br    1  dx2y2  Cor( 3d)     1.99979      -2.84489
    35   Br    1  dx2y2  Ryd( 4d)     0.00166       1.41283
    36   Br    1  dx2y2  Ryd( 5d)     0.00007       1.46807
    37   Br    1  dx2y2  Ryd( 6d)     0.00001       4.18856
    38   Br    1  dz2    Cor( 3d)     1.99991      -2.83613
    39   Br    1  dz2    Ryd( 4d)     0.00126       1.03871
    40   Br    1  dz2    Ryd( 5d)     0.00014       1.26249
    41   Br    1  dz2    Ryd( 6d)     0.00001       4.10040
    42   Br    1  f(0)   Ryd( 4f)     0.00006       1.68020
    43   Br    1  f(C1)  Ryd( 4f)     0.00009       1.72885
    44   Br    1  f(S1)  Ryd( 4f)     0.00004       1.63801
    45   Br    1  f(C2)  Ryd( 4f)     0.00005       1.73123
    46   Br    1  f(S2)  Ryd( 4f)     0.00007       1.71772
    47   Br    1  f(C3)  Ryd( 4f)     0.00004       1.89150
    48   Br    1  f(S3)  Ryd( 4f)     0.00010       1.82978
 
    49    C    2  S      Cor( 1S)     1.99935     -10.30136
    50    C    2  S      Val( 2S)     1.07665      -0.43419
    51    C    2  S      Ryd( 3S)     0.00266       1.24295
    52    C    2  S      Ryd( 4S)     0.00060       1.74885
    53    C    2  S      Ryd( 5S)     0.00000      21.16553
    54    C    2  px     Val( 2p)     0.77324      -0.20049
    55    C    2  px     Ryd( 3p)     0.00313       0.99023
    56    C    2  px     Ryd( 4p)     0.00053       1.55878
    57    C    2  py     Val( 2p)     0.94454      -0.19760
    58    C    2  py     Ryd( 3p)     0.00211       0.89669
    59    C    2  py     Ryd( 4p)     0.00020       1.63525
    60    C    2  pz     Val( 2p)     1.19262      -0.20987
    61    C    2  pz     Ryd( 3p)     0.00272       1.02900
    62    C    2  pz     Ryd( 4p)     0.00027       1.79075
    63    C    2  dxy    Ryd( 3d)     0.00154       1.34195
    64    C    2  dxy    Ryd( 4d)     0.00029       3.51751
    65    C    2  dxz    Ryd( 3d)     0.00265       1.07772
    66    C    2  dxz    Ryd( 4d)     0.00026       3.25047
    67    C    2  dyz    Ryd( 3d)     0.00207       1.06896
    68    C    2  dyz    Ryd( 4d)     0.00028       3.25517
    69    C    2  dx2y2  Ryd( 3d)     0.00253       1.11403
    70    C    2  dx2y2  Ryd( 4d)     0.00033       3.24819
    71    C    2  dz2    Ryd( 3d)     0.00294       1.29099
    72    C    2  dz2    Ryd( 4d)     0.00065       3.51025
    73    C    2  f(0)   Ryd( 4f)     0.00017       3.75016
    74    C    2  f(C1)  Ryd( 4f)     0.00002       3.35532
    75    C    2  f(S1)  Ryd( 4f)     0.00002       3.41864
    76    C    2  f(C2)  Ryd( 4f)     0.00009       3.40928
    77    C    2  f(S2)  Ryd( 4f)     0.00018       3.64969
    78    C    2  f(C3)  Ryd( 4f)     0.00017       3.52180
    79    C    2  f(S3)  Ryd( 4f)     0.00008       3.47385
 
    80    C    3  S      Cor( 1S)     1.99925     -10.28539
    81    C    3  S      Val( 2S)     1.15146      -0.46591
    82    C    3  S      Ryd( 3S)     0.00169       0.90183
    83    C    3  S      Ryd( 4S)     0.00066       1.83679
    84    C    3  S      Ryd( 5S)     0.00000      21.40858
    85    C    3  px     Val( 2p)     0.90489      -0.22148
    86    C    3  px     Ryd( 3p)     0.00199       0.84183
    87    C    3  px     Ryd( 4p)     0.00028       1.29568
    88    C    3  py     Val( 2p)     1.01149      -0.22787
    89    C    3  py     Ryd( 3p)     0.00210       0.87247
    90    C    3  py     Ryd( 4p)     0.00069       1.69935
    91    C    3  pz     Val( 2p)     1.24315      -0.23096
    92    C    3  pz     Ryd( 3p)     0.00237       1.02019
    93    C    3  pz     Ryd( 4p)     0.00035       1.66373
    94    C    3  dxy    Ryd( 3d)     0.00397       1.17088
    95    C    3  dxy    Ryd( 4d)     0.00023       3.31266
    96    C    3  dxz    Ryd( 3d)     0.00233       0.98463
    97    C    3  dxz    Ryd( 4d)     0.00011       3.05680
    98    C    3  dyz    Ryd( 3d)     0.00435       1.18933
    99    C    3  dyz    Ryd( 4d)     0.00022       3.28027
   100    C    3  dx2y2  Ryd( 3d)     0.00276       1.01877
   101    C    3  dx2y2  Ryd( 4d)     0.00009       3.10647
   102    C    3  dz2    Ryd( 3d)     0.00376       1.19594
   103    C    3  dz2    Ryd( 4d)     0.00025       3.26984
   104    C    3  f(0)   Ryd( 4f)     0.00014       3.61287
   105    C    3  f(C1)  Ryd( 4f)     0.00005       3.31819
   106    C    3  f(S1)  Ryd( 4f)     0.00015       3.49338
   107    C    3  f(C2)  Ryd( 4f)     0.00010       3.33374
   108    C    3  f(S2)  Ryd( 4f)     0.00013       3.47366
   109    C    3  f(C3)  Ryd( 4f)     0.00027       3.44972
   110    C    3  f(S3)  Ryd( 4f)     0.00007       3.29844
 
   111    C    4  S      Cor( 1S)     1.99939     -10.18462
   112    C    4  S      Val( 2S)     1.11684      -0.37923
   113    C    4  S      Ryd( 3S)     0.00178       1.05791
   114    C    4  S      Ryd( 4S)     0.00010       2.38126
   115    C    4  S      Ryd( 5S)     0.00000      21.20127
   116    C    4  px     Val( 2p)     1.12796      -0.17901
   117    C    4  px     Ryd( 3p)     0.00173       0.81519
   118    C    4  px     Ryd( 4p)     0.00014       1.59067
   119    C    4  py     Val( 2p)     1.19135      -0.18435
   120    C    4  py     Ryd( 3p)     0.00137       0.86449
   121    C    4  py     Ryd( 4p)     0.00014       1.62998
   122    C    4  pz     Val( 2p)     1.21322      -0.18148
   123    C    4  pz     Ryd( 3p)     0.00150       0.94511
   124    C    4  pz     Ryd( 4p)     0.00015       1.58484
   125    C    4  dxy    Ryd( 3d)     0.00284       1.42540
   126    C    4  dxy    Ryd( 4d)     0.00020       3.14576
   127    C    4  dxz    Ryd( 3d)     0.00147       1.30509
   128    C    4  dxz    Ryd( 4d)     0.00007       2.95998
   129    C    4  dyz    Ryd( 3d)     0.00202       1.35935
   130    C    4  dyz    Ryd( 4d)     0.00002       3.00387
   131    C    4  dx2y2  Ryd( 3d)     0.00090       1.38185
   132    C    4  dx2y2  Ryd( 4d)     0.00008       3.03523
   133    C    4  dz2    Ryd( 3d)     0.00171       1.55949
   134    C    4  dz2    Ryd( 4d)     0.00024       3.16122
   135    C    4  f(0)   Ryd( 4f)     0.00017       3.78736
   136    C    4  f(C1)  Ryd( 4f)     0.00005       3.51848
   137    C    4  f(S1)  Ryd( 4f)     0.00002       3.38029
   138    C    4  f(C2)  Ryd( 4f)     0.00003       3.56583
   139    C    4  f(S2)  Ryd( 4f)     0.00007       3.49089
   140    C    4  f(C3)  Ryd( 4f)     0.00003       3.37897
   141    C    4  f(S3)  Ryd( 4f)     0.00013       3.78106
 
   142    H    5  S      Val( 1S)     0.71973      -0.00771
   143    H    5  S      Ryd( 3S)     0.00040       1.25250
   144    H    5  S      Ryd( 2S)     0.00014       1.21179
   145    H    5  px     Ryd( 2p)     0.00015       2.29050
   146    H    5  py     Ryd( 2p)     0.00014       2.85713
   147    H    5  pz     Ryd( 2p)     0.00018       2.54684
 
   148    H    6  S      Val( 1S)     0.72664      -0.01228
   149    H    6  S      Ryd( 2S)     0.00062       1.14034
   150    H    6  S      Ryd( 3S)     0.00015       1.36476
   151    H    6  px     Ryd( 2p)     0.00010       2.26539
   152    H    6  py     Ryd( 2p)     0.00008       2.42489
   153    H    6  pz     Ryd( 2p)     0.00028       2.98602
 
   154    H    7  S      Val( 1S)     0.75227       0.00567
   155    H    7  S      Ryd( 2S)     0.00061       0.99825
   156    H    7  S      Ryd( 3S)     0.00011       1.56712
   157    H    7  px     Ryd( 2p)     0.00011       2.31271
   158    H    7  py     Ryd( 2p)     0.00010       2.27368
   159    H    7  pz     Ryd( 2p)     0.00027       3.04905
 
   160    H    8  S      Val( 1S)     0.72125       0.00262
   161    H    8  S      Ryd( 2S)     0.00041       1.24337
   162    H    8  S      Ryd( 3S)     0.00013       1.25321
   163    H    8  px     Ryd( 2p)     0.00026       2.89048
   164    H    8  py     Ryd( 2p)     0.00009       2.37669
   165    H    8  pz     Ryd( 2p)     0.00009       2.23530
 
   166    H    9  S      Val( 1S)     0.73943       0.01253
   167    H    9  S      Ryd( 2S)     0.00028       1.23908
   168    H    9  S      Ryd( 3S)     0.00012       1.30812
   169    H    9  px     Ryd( 2p)     0.00012       2.30334
   170    H    9  py     Ryd( 2p)     0.00021       2.95660
   171    H    9  pz     Ryd( 2p)     0.00010       2.37488
 
   172    H   10  S      Val( 1S)     0.72682       0.00319
   173    H   10  S      Ryd( 2S)     0.00051       1.02752
   174    H   10  S      Ryd( 3S)     0.00018       1.73849
   175    H   10  px     Ryd( 2p)     0.00011       2.39306
   176    H   10  py     Ryd( 2p)     0.00013       2.38307
   177    H   10  pz     Ryd( 2p)     0.00031       3.07606

 WARNING:  Population inversion found on atom Br    1
           Population inversion found on atom  H    5


 Summary of Natural Population Analysis:                  
                                                          
                                       Natural Population 
                Natural  -----------------------------------------------
    Atom  No    Charge         Core      Valence    Rydberg      Total
 -----------------------------------------------------------------------
     Br    1    0.41057     27.99911     6.57935    0.01097    34.58943
      C    2   -0.01290      1.99935     3.98704    0.02651     6.01290
      C    3   -0.33934      1.99925     4.31098    0.02911     6.33934
      C    4   -0.66571      1.99939     4.64937    0.01696     6.66571
      H    5    0.27925      0.00000     0.71973    0.00102     0.72075
      H    6    0.27214      0.00000     0.72664    0.00122     0.72786
      H    7    0.24653      0.00000     0.75227    0.00120     0.75347
      H    8    0.27777      0.00000     0.72125    0.00098     0.72223
      H    9    0.25974      0.00000     0.73943    0.00083     0.74026
      H   10    0.27195      0.00000     0.72682    0.00124     0.72805
 =======================================================================
   * Total *    1.00000     33.99709    23.91288    0.09003    58.00000

                                 Natural Population      
 --------------------------------------------------------
   Core                      33.99709 ( 99.9914% of  34)
   Valence                   23.91288 ( 99.6370% of  24)
   Natural Minimal Basis     57.90997 ( 99.8448% of  58)
   Natural Rydberg Basis      0.09003 (  0.1552% of  58)
 --------------------------------------------------------

    Atom  No          Natural Electron Configuration
 ----------------------------------------------------------------------------
     Br    1      [core]4S( 1.89)4p( 4.69)
      C    2      [core]2S( 1.08)2p( 2.91)3p( 0.01)3d( 0.01)
      C    3      [core]2S( 1.15)2p( 3.16)3p( 0.01)3d( 0.02)
      C    4      [core]2S( 1.12)2p( 3.53)3d( 0.01)
      H    5            1S( 0.72)
      H    6            1S( 0.73)
      H    7            1S( 0.75)
      H    8            1S( 0.72)
      H    9            1S( 0.74)
      H   10            1S( 0.73)


 NATURAL BOND ORBITAL ANALYSIS:

                       Occupancies       Lewis Structure    Low   High
           Occ.    -------------------  -----------------   occ   occ
  Cycle   Thresh.   Lewis   Non-Lewis     CR  BD  3C  LP    (L)   (NL)   Dev
 =============================================================================
   1(1)    1.90    57.66559   0.33441     17  10   0   2     0      1    0.13
   2(2)    1.90    57.66559   0.33441     17  10   0   2     0      1    0.13
   3(1)    1.80    57.66559   0.33441     17  10   0   2     0      1    0.13
   4(2)    1.80    57.66559   0.33441     17  10   0   2     0      1    0.13
   5(1)    1.70    57.66559   0.33441     17  10   0   2     0      1    0.13
   6(2)    1.70    57.66559   0.33441     17  10   0   2     0      1    0.13
   7(1)    1.60    57.15825   0.84175     17   9   0   3     0      1    0.70
   8(2)    1.60    57.15825   0.84175     17   9   0   3     0      1    0.70
   9(1)    1.50    56.96140   1.03860     17   9   0   3     0      2    0.85
  10(2)    1.50    57.15825   0.84175     17   9   0   3     0      1    0.70
  11(3)    1.50    56.96140   1.03860     17   9   0   3     0      2    0.85
  12(4)    1.50    57.15825   0.84175     17   9   0   3     0      1    0.70
  13(1)    1.90    57.66559   0.33441     17  10   0   2     0      1    0.13
 -----------------------------------------------------------------------------

 Structure accepted: RESONANCE keyword permits strongly delocalized structure

 --------------------------------------------------------
   Core                     33.99709 ( 99.991% of  34)
   Valence Lewis            23.66850 ( 98.619% of  24)
  ==================       ============================
   Total Lewis              57.66559 ( 99.423% of  58)
  -----------------------------------------------------
   Valence non-Lewis         0.29177 (  0.503% of  58)
   Rydberg non-Lewis         0.04264 (  0.074% of  58)
  ==================       ============================
   Total non-Lewis           0.33441 (  0.577% of  58)
 --------------------------------------------------------


       (Occupancy)   Bond orbital/ Coefficients/ Hybrids
 ---------------------------------------------------------------------------------
     1. (1.91789) BD ( 1)Br   1 - C   2  
                ( 69.05%)   0.8309*Br   1 s(  5.04%)p18.80( 94.82%)d 0.03(  0.13%)
                                                  f 0.00(  0.01%)
                                            0.0000  0.0000 -0.0001 -0.2241 -0.0136
                                            0.0006 -0.0000  0.0001 -0.8688 -0.0125
                                            0.0023  0.0000  0.0001  0.2028 -0.0046
                                           -0.0019 -0.0000  0.0000 -0.3899 -0.0002
                                           -0.0004 -0.0000 -0.0134  0.0005  0.0001
                                           -0.0000 -0.0155 -0.0002 -0.0001  0.0000
                                            0.0015  0.0030  0.0000  0.0000 -0.0227
                                            0.0051  0.0008  0.0000  0.0184 -0.0003
                                           -0.0008  0.0028  0.0049  0.0027 -0.0022
                                            0.0011 -0.0009 -0.0038
                ( 30.95%)   0.5564* C   2 s(  5.01%)p18.83( 94.40%)d 0.11(  0.56%)
                                                  f 0.00(  0.02%)
                                            0.0001 -0.2171  0.0521  0.0169 -0.0008
                                            0.7906  0.0385 -0.0127  0.5557  0.0119
                                           -0.0003  0.0905  0.0133 -0.0020 -0.0257
                                           -0.0031 -0.0313  0.0058 -0.0030 -0.0020
                                           -0.0514  0.0071  0.0354 -0.0041 -0.0036
                                           -0.0023  0.0004  0.0086  0.0010  0.0093
                                            0.0024
     2. (1.94076) BD ( 1)Br   1 - C   3  
                ( 62.47%)   0.7904*Br   1 s(  5.95%)p15.78( 93.88%)d 0.03(  0.17%)
                                                  f 0.00(  0.01%)
                                           -0.0000 -0.0000  0.0000  0.2432  0.0186
                                            0.0004 -0.0000 -0.0001  0.2612  0.0111
                                            0.0004  0.0000 -0.0000  0.8962  0.0162
                                            0.0016 -0.0000 -0.0000 -0.2588 -0.0032
                                            0.0001 -0.0000  0.0320 -0.0047  0.0009
                                            0.0000 -0.0001  0.0032 -0.0007 -0.0000
                                           -0.0082 -0.0007 -0.0003  0.0000 -0.0067
                                            0.0029 -0.0015 -0.0000 -0.0222  0.0012
                                            0.0001  0.0008 -0.0048 -0.0044  0.0034
                                            0.0001 -0.0019  0.0032
                ( 37.53%)   0.6126* C   3 s(  8.81%)p10.27( 90.55%)d 0.07(  0.62%)
                                                  f 0.00(  0.02%)
                                           -0.0001  0.2951 -0.0179 -0.0265  0.0001
                                           -0.7878  0.0111  0.0102 -0.5280  0.0264
                                            0.0112 -0.0711 -0.0067 -0.0013  0.0587
                                           -0.0028  0.0025 -0.0008 -0.0197  0.0053
                                           -0.0177  0.0064 -0.0437  0.0045 -0.0022
                                            0.0038  0.0059 -0.0024  0.0044  0.0095
                                            0.0012
     3. (1.99413) BD ( 1) C   2 - C   3  
                ( 49.86%)   0.7061* C   2 s( 31.03%)p 2.21( 68.70%)d 0.01(  0.26%)
                                                  f 0.00(  0.01%)
                                            0.0000  0.5569  0.0133 -0.0033  0.0004
                                           -0.2862  0.0005  0.0125  0.6859 -0.0226
                                            0.0040 -0.3660 -0.0002 -0.0008 -0.0205
                                           -0.0050  0.0312  0.0005 -0.0271 -0.0077
                                            0.0043 -0.0097 -0.0151  0.0018  0.0059
                                            0.0012  0.0026 -0.0013  0.0047  0.0053
                                            0.0023
                ( 50.14%)   0.7081* C   3 s( 31.69%)p 2.14( 67.92%)d 0.01(  0.38%)
                                                  f 0.00(  0.01%)
                                            0.0001  0.5626  0.0188 -0.0003  0.0003
                                            0.5208  0.0157  0.0068 -0.5120 -0.0048
                                            0.0102  0.3812  0.0100  0.0013 -0.0210
                                           -0.0095  0.0158  0.0055 -0.0390 -0.0030
                                           -0.0303  0.0035 -0.0220  0.0009 -0.0051
                                            0.0010  0.0040 -0.0071 -0.0052 -0.0040
                                           -0.0005
     4. (1.99089) BD ( 1) C   2 - C   4  
                ( 52.31%)   0.7232* C   2 s( 35.31%)p 1.83( 64.57%)d 0.00(  0.11%)
                                                  f 0.00(  0.01%)
                                            0.0000  0.5940  0.0141  0.0032 -0.0001
                                            0.5319 -0.0142 -0.0015 -0.4637  0.0119
                                            0.0038 -0.3838 -0.0085 -0.0027 -0.0116
                                           -0.0080 -0.0137 -0.0090  0.0246  0.0038
                                            0.0003  0.0023  0.0012 -0.0015  0.0042
                                           -0.0010 -0.0007 -0.0022  0.0045 -0.0040
                                           -0.0072
                ( 47.69%)   0.6906* C   4 s( 27.93%)p 2.57( 71.88%)d 0.01(  0.18%)
                                                  f 0.00(  0.01%)
                                            0.0002  0.5281  0.0220  0.0009  0.0001
                                           -0.6160 -0.0129  0.0039  0.4509  0.0093
                                           -0.0064  0.3683  0.0085 -0.0040 -0.0272
                                           -0.0049 -0.0218 -0.0035  0.0198  0.0018
                                            0.0043  0.0022 -0.0093 -0.0009 -0.0056
                                           -0.0021 -0.0010 -0.0013 -0.0039  0.0028
                                            0.0051
     5. (1.97592) BD ( 1) C   2 - H  10  
                ( 63.80%)   0.7988* C   2 s( 28.87%)p 2.46( 70.92%)d 0.01(  0.20%)
                                                  f 0.00(  0.02%)
                                           -0.0001  0.5371 -0.0122  0.0055 -0.0004
                                            0.0313 -0.0093 -0.0006  0.0277  0.0059
                                            0.0022  0.8408  0.0166  0.0111  0.0149
                                            0.0009 -0.0073  0.0016  0.0024  0.0005
                                            0.0037 -0.0020  0.0396  0.0102  0.0086
                                            0.0012 -0.0009  0.0015 -0.0092 -0.0004
                                            0.0011
                ( 36.20%)   0.6017* H  10 s( 99.97%)p 0.00(  0.03%)
                                            0.9998  0.0026  0.0000  0.0031  0.0000
                                           -0.0180
     6. (1.98373) BD ( 1) C   3 - H   5  
                ( 64.06%)   0.8004* C   3 s( 29.71%)p 2.36( 70.07%)d 0.01(  0.21%)
                                                  f 0.00(  0.01%)
                                           -0.0001  0.5450 -0.0026  0.0053 -0.0001
                                           -0.2743  0.0051 -0.0014  0.6507  0.0038
                                            0.0056  0.4490 -0.0164  0.0047 -0.0102
                                           -0.0040 -0.0266  0.0007  0.0329  0.0069
                                           -0.0008 -0.0060  0.0104 -0.0015 -0.0037
                                            0.0008 -0.0005 -0.0044 -0.0040  0.0085
                                           -0.0044
                ( 35.94%)   0.5995* H   5 s( 99.97%)p 0.00(  0.03%)
                                            0.9998  0.0016 -0.0001  0.0087 -0.0100
                                           -0.0124
     7. (1.98701) BD ( 1) C   3 - H   6  
                ( 63.82%)   0.7988* C   3 s( 29.79%)p 2.35( 70.01%)d 0.01(  0.18%)
                                                  f 0.00(  0.01%)
                                            0.0000 -0.5457  0.0086 -0.0052  0.0002
                                           -0.1645  0.0070 -0.0022 -0.1652 -0.0172
                                            0.0001  0.8033 -0.0072  0.0089 -0.0021
                                           -0.0010  0.0115  0.0044 -0.0115  0.0067
                                           -0.0032 -0.0006 -0.0380 -0.0080  0.0070
                                           -0.0038 -0.0081 -0.0031  0.0011 -0.0007
                                            0.0022
                ( 36.18%)   0.6015* H   6 s( 99.97%)p 0.00(  0.03%)
                                           -0.9998 -0.0024  0.0001  0.0022 -0.0008
                                           -0.0183
     8. (1.98565) BD ( 1) C   4 - H   7  
                ( 62.29%)   0.7892* C   4 s( 25.05%)p 2.99( 74.81%)d 0.01(  0.13%)
                                                  f 0.00(  0.01%)
                                            0.0000 -0.5003  0.0103 -0.0002  0.0002
                                            0.1225 -0.0121 -0.0001  0.0531  0.0101
                                            0.0021  0.8544 -0.0038  0.0016  0.0031
                                           -0.0020 -0.0179  0.0005  0.0052 -0.0014
                                           -0.0040  0.0008 -0.0307 -0.0051  0.0077
                                            0.0016  0.0026  0.0015 -0.0010 -0.0009
                                           -0.0045
                ( 37.71%)   0.6141* H   7 s( 99.97%)p 0.00(  0.03%)
                                           -0.9998 -0.0015 -0.0002 -0.0011 -0.0018
                                           -0.0181
     9. (1.93717) BD ( 1) C   4 - H   8  
                ( 62.98%)   0.7936* C   4 s( 22.70%)p 3.40( 77.11%)d 0.01(  0.19%)
                                                  f 0.00(  0.01%)
                                           -0.0003  0.4764 -0.0053 -0.0019  0.0002
                                            0.7753  0.0008  0.0030  0.3865 -0.0085
                                            0.0025  0.1436 -0.0051 -0.0013  0.0338
                                            0.0012  0.0170 -0.0001  0.0110 -0.0007
                                            0.0076  0.0023 -0.0155 -0.0010 -0.0044
                                           -0.0034 -0.0008 -0.0011  0.0028 -0.0005
                                            0.0047
                ( 37.02%)   0.6084* H   8 s( 99.97%)p 0.00(  0.03%)
                                            0.9998  0.0010  0.0002 -0.0177 -0.0049
                                           -0.0013
    10. (1.97690) BD ( 1) C   4 - H   9  
                ( 62.75%)   0.7921* C   4 s( 24.35%)p 3.10( 75.48%)d 0.01(  0.17%)
                                                  f 0.00(  0.01%)
                                            0.0001 -0.4934  0.0028 -0.0008  0.0001
                                           -0.0345 -0.0031  0.0020  0.8012 -0.0036
                                            0.0024 -0.3339  0.0095  0.0021 -0.0081
                                            0.0013 -0.0003 -0.0000  0.0325  0.0002
                                            0.0237  0.0023  0.0021  0.0023  0.0045
                                            0.0038 -0.0005  0.0031 -0.0009  0.0015
                                           -0.0045
                ( 37.25%)   0.6104* H   9 s( 99.97%)p 0.00(  0.03%)
                                           -0.9999 -0.0007 -0.0001  0.0024 -0.0154
                                            0.0062
    11. (2.00000) CR ( 1)Br   1           s(100.00%)
                                            1.0000 -0.0000  0.0000  0.0000  0.0000
                                            0.0000 -0.0000 -0.0000  0.0000  0.0000
                                           -0.0000  0.0000 -0.0000  0.0000  0.0000
                                            0.0000  0.0000  0.0000  0.0000 -0.0000
                                            0.0000 -0.0000  0.0000 -0.0000  0.0000
                                           -0.0000  0.0000  0.0000 -0.0000 -0.0000
                                           -0.0000 -0.0000 -0.0000  0.0000  0.0000
                                            0.0000 -0.0000 -0.0000 -0.0000  0.0000
                                            0.0000 -0.0000 -0.0000 -0.0000  0.0000
                                            0.0000 -0.0000  0.0000
    12. (2.00000) CR ( 2)Br   1           s(100.00%)
                                           -0.0000  1.0000  0.0000  0.0000  0.0000
                                           -0.0000 -0.0000 -0.0000  0.0000  0.0000
                                           -0.0000 -0.0000 -0.0000  0.0000  0.0000
                                            0.0000  0.0000 -0.0000  0.0000 -0.0000
                                            0.0000  0.0000  0.0000 -0.0000  0.0000
                                            0.0000  0.0000  0.0000 -0.0000 -0.0000
                                           -0.0000 -0.0000 -0.0000 -0.0000  0.0000
                                           -0.0000 -0.0000 -0.0000 -0.0000  0.0000
                                            0.0000 -0.0000 -0.0000 -0.0000  0.0000
                                           -0.0000 -0.0000  0.0000
    13. (1.99983) CR ( 3)Br   1           s(100.00%)p 0.00(  0.00%)
                                            0.0000  0.0000  1.0000  0.0001 -0.0000
                                            0.0000 -0.0000  0.0000 -0.0001 -0.0000
                                            0.0000  0.0000  0.0000  0.0000 -0.0000
                                           -0.0000  0.0000  0.0000  0.0000 -0.0000
                                            0.0000 -0.0000 -0.0000  0.0000 -0.0000
                                           -0.0000 -0.0000 -0.0000 -0.0000 -0.0000
                                            0.0000  0.0000 -0.0000  0.0000 -0.0000
                                            0.0000  0.0000  0.0000  0.0000 -0.0000
                                           -0.0000  0.0000  0.0000  0.0000 -0.0000
                                            0.0000 -0.0000 -0.0000
    14. (2.00000) CR ( 4)Br   1           s(  0.00%)p 1.00(100.00%)
                                           -0.0000 -0.0000 -0.0000  0.0000  0.0000
                                            0.0000  1.0000  0.0000 -0.0000 -0.0000
                                            0.0000  0.0000  0.0000  0.0000 -0.0000
                                            0.0000  0.0000  0.0000  0.0000 -0.0000
                                            0.0000 -0.0000  0.0000 -0.0000 -0.0000
                                           -0.0000  0.0000  0.0000 -0.0000 -0.0000
                                            0.0000  0.0000 -0.0000  0.0000 -0.0000
                                            0.0000  0.0000 -0.0000 -0.0000 -0.0000
                                           -0.0000 -0.0000  0.0000 -0.0000  0.0000
                                            0.0000 -0.0000 -0.0000
    15. (1.99995) CR ( 5)Br   1           s(  0.00%)p 1.00(100.00%)
                                           -0.0000 -0.0000  0.0000 -0.0000  0.0000
                                           -0.0000  0.0000  1.0000  0.0001  0.0000
                                           -0.0000 -0.0000 -0.0000  0.0000  0.0000
                                            0.0000 -0.0000 -0.0000 -0.0000  0.0000
                                            0.0000  0.0000  0.0000 -0.0000  0.0000
                                            0.0000  0.0000  0.0000  0.0000  0.0000
                                           -0.0000 -0.0000  0.0000 -0.0000  0.0000
                                           -0.0000 -0.0000 -0.0000 -0.0000  0.0000
                                            0.0000 -0.0000 -0.0000 -0.0000  0.0000
                                           -0.0000  0.0000  0.0000
    16. (2.00000) CR ( 6)Br   1           s(  0.00%)p 1.00(100.00%)
                                            0.0000 -0.0000  0.0000  0.0000  0.0000
                                           -0.0000  0.0000 -0.0000  0.0000 -0.0000
                                           -0.0000  1.0000 -0.0000 -0.0000 -0.0000
                                            0.0000 -0.0000 -0.0000 -0.0000  0.0000
                                           -0.0000  0.0000 -0.0000  0.0000 -0.0000
                                            0.0000  0.0000 -0.0000  0.0000  0.0000
                                           -0.0000 -0.0000  0.0000 -0.0000  0.0000
                                           -0.0000 -0.0000  0.0000 -0.0000 -0.0000
                                            0.0000  0.0000 -0.0000  0.0000 -0.0000
                                           -0.0000  0.0000  0.0000
    17. (1.99997) CR ( 7)Br   1           s(  0.00%)p 1.00(100.00%)
                                           -0.0000 -0.0000  0.0000 -0.0000  0.0000
                                           -0.0000  0.0000 -0.0000  0.0001  0.0000
                                           -0.0000 -0.0000  1.0000  0.0000  0.0000
                                            0.0000 -0.0000 -0.0000 -0.0000  0.0000
                                            0.0000  0.0000  0.0000 -0.0000  0.0000
                                            0.0000  0.0000  0.0000  0.0000  0.0000
                                           -0.0000 -0.0000  0.0000 -0.0000  0.0000
                                           -0.0000 -0.0000 -0.0000 -0.0000  0.0000
                                            0.0000 -0.0000 -0.0000 -0.0000  0.0000
                                           -0.0000  0.0000  0.0000
    18. (2.00000) CR ( 8)Br   1           s(  0.00%)p 1.00(100.00%)
                                            0.0000  0.0000  0.0000  0.0000 -0.0000
                                            0.0000  0.0000 -0.0000  0.0000 -0.0000
                                            0.0000 -0.0000 -0.0000 -0.0000  0.0000
                                           -0.0000  1.0000 -0.0000 -0.0000  0.0000
                                           -0.0000  0.0000 -0.0000 -0.0000  0.0000
                                            0.0000 -0.0000  0.0000  0.0000  0.0000
                                           -0.0000  0.0000  0.0000 -0.0000  0.0000
                                           -0.0000 -0.0000  0.0000 -0.0000 -0.0000
                                            0.0000  0.0000 -0.0000  0.0000 -0.0000
                                           -0.0000  0.0000  0.0000
    19. (1.99999) CR ( 9)Br   1           s(  0.00%)p 1.00(100.00%)
                                            0.0000 -0.0000  0.0000 -0.0000  0.0000
                                           -0.0000  0.0000 -0.0000  0.0000 -0.0000
                                           -0.0000 -0.0000 -0.0000 -0.0000  0.0000
                                            0.0000 -0.0000  1.0000 -0.0001  0.0000
                                           -0.0000  0.0000  0.0000 -0.0000  0.0000
                                            0.0000 -0.0000  0.0000  0.0000  0.0000
                                           -0.0000  0.0000  0.0000 -0.0000  0.0000
                                           -0.0000 -0.0000  0.0000 -0.0000  0.0000
                                            0.0000  0.0000 -0.0000  0.0000 -0.0000
                                           -0.0000  0.0000  0.0000
    20. (1.99978) CR (10)Br   1           s(  0.00%)p 0.00(  0.00%)d 1.00(100.00%)
                                           -0.0000  0.0000 -0.0000  0.0000 -0.0000
                                            0.0000 -0.0000  0.0000 -0.0000 -0.0000
                                            0.0000  0.0000  0.0000  0.0000 -0.0000
                                           -0.0000  0.0000  0.0000  0.0000 -0.0000
                                            0.0000  1.0000 -0.0000  0.0000 -0.0000
                                           -0.0000 -0.0000  0.0000 -0.0000 -0.0000
                                            0.0000  0.0000 -0.0000  0.0000 -0.0000
                                            0.0000  0.0000  0.0000  0.0000 -0.0000
                                           -0.0000  0.0000  0.0000  0.0000 -0.0000
                                            0.0000 -0.0000 -0.0000
    21. (1.99992) CR (11)Br   1           s(  0.00%)p 0.00(  0.00%)d 1.00(100.00%)
                                           -0.0000  0.0000 -0.0000  0.0000 -0.0000
                                            0.0000 -0.0000  0.0000 -0.0001  0.0000
                                            0.0000  0.0000  0.0000  0.0000 -0.0000
                                           -0.0000  0.0000  0.0000  0.0001 -0.0000
                                            0.0000 -0.0000 -0.0000  0.0000 -0.0000
                                            1.0000  0.0000 -0.0000 -0.0000 -0.0000
                                            0.0000 -0.0000 -0.0000  0.0000 -0.0000
                                            0.0000  0.0000 -0.0000  0.0000 -0.0000
                                           -0.0000 -0.0000  0.0000 -0.0000  0.0000
                                            0.0000 -0.0000 -0.0000
    22. (1.99997) CR (12)Br   1           s(  0.00%)p 0.00(  0.00%)d 1.00(100.00%)
                                           -0.0000 -0.0000 -0.0000  0.0000  0.0000
                                           -0.0000 -0.0000  0.0000 -0.0000  0.0000
                                           -0.0000  0.0000  0.0000  0.0000 -0.0000
                                            0.0000  0.0000  0.0000  0.0001 -0.0000
                                            0.0000 -0.0000  0.0000 -0.0000 -0.0000
                                           -0.0000  0.0000 -0.0000 -0.0000  1.0000
                                            0.0000 -0.0000 -0.0000  0.0000 -0.0000
                                            0.0000  0.0000 -0.0000 -0.0000  0.0000
                                           -0.0000 -0.0000  0.0000 -0.0000  0.0000
                                            0.0000 -0.0000  0.0000
    23. (1.99979) CR (13)Br   1           s(  0.00%)p 0.00(  0.00%)d 1.00(100.00%)
                                            0.0000 -0.0000  0.0000  0.0000  0.0000
                                           -0.0000  0.0000 -0.0000  0.0001 -0.0000
                                           -0.0000 -0.0000 -0.0000 -0.0001  0.0000
                                            0.0000 -0.0000 -0.0000 -0.0000  0.0000
                                           -0.0000  0.0000 -0.0000  0.0000  0.0000
                                            0.0000  0.0000  0.0000  0.0000  0.0000
                                           -0.0000 -0.0000  0.0000  1.0000  0.0000
                                           -0.0000 -0.0000  0.0000 -0.0000 -0.0000
                                            0.0000  0.0000 -0.0000  0.0000 -0.0000
                                           -0.0000  0.0000  0.0000
    24. (1.99991) CR (14)Br   1           s(  0.00%)p 0.00(  0.00%)d 1.00(100.00%)
                                           -0.0000 -0.0000  0.0000  0.0000  0.0000
                                           -0.0000 -0.0000 -0.0000  0.0000  0.0000
                                           -0.0000  0.0000 -0.0000  0.0000  0.0000
                                            0.0000  0.0000  0.0000  0.0000 -0.0000
                                            0.0000  0.0000  0.0000 -0.0000  0.0000
                                           -0.0000  0.0000  0.0000 -0.0000 -0.0000
                                           -0.0000 -0.0000 -0.0000  0.0000  0.0000
                                           -0.0000 -0.0000  1.0000 -0.0000  0.0000
                                            0.0000 -0.0000 -0.0000 -0.0000  0.0000
                                            0.0000 -0.0000  0.0000
    25. (1.99935) CR ( 1) C   2           s(100.00%)p 0.00(  0.00%)
                                            1.0000  0.0001 -0.0000 -0.0000  0.0000
                                           -0.0001 -0.0000  0.0000 -0.0001  0.0000
                                            0.0000  0.0001  0.0000  0.0000  0.0000
                                            0.0000  0.0000 -0.0000  0.0000  0.0000
                                            0.0000 -0.0000  0.0000  0.0000  0.0000
                                            0.0000 -0.0000 -0.0000 -0.0000 -0.0000
                                           -0.0000
    26. (1.99925) CR ( 1) C   3           s(100.00%)p 0.00(  0.00%)
                                            1.0000  0.0000 -0.0000 -0.0000 -0.0000
                                           -0.0002 -0.0000 -0.0000  0.0001  0.0000
                                            0.0000 -0.0000 -0.0000 -0.0000  0.0000
                                            0.0000 -0.0000 -0.0000  0.0000  0.0000
                                            0.0000 -0.0000  0.0000  0.0000 -0.0000
                                            0.0000  0.0000  0.0000  0.0000  0.0000
                                           -0.0000
    27. (1.99939) CR ( 1) C   4           s(100.00%)p 0.00(  0.00%)
                                            1.0000  0.0001 -0.0000 -0.0000  0.0000
                                            0.0003  0.0000 -0.0000 -0.0001 -0.0000
                                            0.0000 -0.0000 -0.0000 -0.0000  0.0000
                                            0.0000  0.0000  0.0000 -0.0000 -0.0000
                                           -0.0000 -0.0000 -0.0000 -0.0000 -0.0000
                                           -0.0000 -0.0000 -0.0000  0.0000 -0.0000
                                            0.0000
    28. (1.99810) LP ( 1)Br   1           s( 88.60%)p 0.13( 11.40%)d 0.00(  0.00%)
                                                  f 0.00(  0.00%)
                                           -0.0000  0.0000 -0.0001  0.9413 -0.0040
                                            0.0000 -0.0000  0.0001 -0.2513 -0.0090
                                            0.0007 -0.0000  0.0000 -0.2073 -0.0053
                                            0.0003 -0.0000  0.0000 -0.0883  0.0009
                                           -0.0001 -0.0000 -0.0028  0.0017 -0.0006
                                           -0.0000 -0.0005  0.0002  0.0001  0.0000
                                           -0.0007  0.0005  0.0001 -0.0000 -0.0002
                                            0.0012 -0.0001  0.0000  0.0011 -0.0011
                                            0.0004  0.0004  0.0004  0.0004 -0.0000
                                           -0.0006  0.0001 -0.0010
    29. (1.98035) LP ( 2)Br   1           s(  0.45%)p99.99( 99.53%)d 0.04(  0.02%)
                                                  f 0.01(  0.01%)
                                           -0.0000 -0.0000 -0.0001  0.0668  0.0003
                                            0.0000 -0.0000  0.0000 -0.3339  0.0056
                                            0.0003  0.0000  0.0000  0.3330 -0.0068
                                           -0.0000  0.0000  0.0001  0.8789 -0.0166
                                            0.0010 -0.0000  0.0020  0.0001 -0.0006
                                           -0.0002  0.0096 -0.0012 -0.0018 -0.0001
                                            0.0063 -0.0014 -0.0013  0.0001 -0.0062
                                            0.0012  0.0014 -0.0000  0.0020 -0.0001
                                           -0.0005 -0.0038  0.0027 -0.0013  0.0012
                                            0.0045 -0.0029 -0.0007
    30. (0.00153) RY*( 1)Br   1           s(  6.53%)p 3.89( 25.41%)d 9.87( 64.37%)
                                                  f 0.57(  3.70%)
                                           -0.0000 -0.0000  0.0000 -0.0052  0.2546
                                            0.0201  0.0000  0.0000 -0.0343  0.4790
                                            0.0792  0.0000 -0.0000 -0.0166  0.1055
                                            0.0575 -0.0000 -0.0000 -0.0033 -0.0478
                                            0.0103  0.0000  0.3956  0.0150  0.0639
                                           -0.0000 -0.2456 -0.0855  0.0364  0.0000
                                            0.1026  0.0331  0.0016  0.0000  0.5999
                                           -0.0056  0.0141  0.0000 -0.1938  0.0547
                                           -0.0411  0.0240 -0.0664  0.0016 -0.0805
                                            0.0244  0.0371  0.1533
    31. (0.00134) RY*( 2)Br   1           s(  1.44%)p11.40( 16.39%)d55.34( 79.57%)
                                                  f 1.81(  2.60%)
                                           -0.0000 -0.0000  0.0000 -0.0022  0.1198
                                            0.0037  0.0000  0.0000 -0.0110  0.0193
                                            0.0220  0.0000 -0.0000 -0.0095  0.2271
                                            0.0298  0.0000 -0.0000 -0.0045  0.3323
                                            0.0005  0.0000  0.1712 -0.0559  0.0180
                                           -0.0000  0.4428 -0.0347 -0.0168  0.0000
                                            0.6742  0.1305 -0.0099  0.0000 -0.2110
                                           -0.0339  0.0145 -0.0000 -0.1914 -0.1011
                                           -0.0301 -0.0789 -0.0373 -0.0192 -0.0271
                                            0.1216 -0.0473  0.0155
    32. (0.00095) RY*( 3)Br   1           s(  0.74%)p 4.66(  3.43%)d99.99( 90.41%)
                                                  f 7.37(  5.43%)
                                           -0.0000 -0.0000  0.0000 -0.0012  0.0857
                                            0.0029  0.0000  0.0000 -0.0032 -0.0761
                                            0.0061  0.0000 -0.0000 -0.0059  0.1141
                                            0.0400  0.0000 -0.0000 -0.0006  0.1175
                                            0.0046  0.0000  0.4935  0.2275  0.0254
                                           -0.0000  0.3126  0.1094 -0.0173  0.0000
                                           -0.1702 -0.1290 -0.0152  0.0000  0.0064
                                            0.0330  0.0037 -0.0000  0.5886  0.3236
                                           -0.0018  0.0010  0.1252  0.0595  0.1043
                                            0.0147 -0.0298  0.1518
    33. (0.00070) RY*( 4)Br   1           s(  1.55%)p18.36( 28.49%)d43.58( 67.63%)
                                                  f 1.50(  2.33%)
                                           -0.0000 -0.0000  0.0000 -0.0028  0.1242
                                           -0.0093  0.0000  0.0000 -0.0002 -0.1118
                                            0.0742  0.0000 -0.0000 -0.0296  0.3803
                                           -0.0432  0.0000  0.0000  0.0092 -0.3388
                                            0.0685  0.0000  0.3997 -0.0442 -0.0007
                                           -0.0000 -0.4088  0.1067  0.0162  0.0000
                                           -0.0435  0.0750  0.0021  0.0000 -0.5515
                                            0.0310 -0.0052 -0.0000 -0.1517  0.0071
                                           -0.0148 -0.0222 -0.0409 -0.0355 -0.0634
                                           -0.0647 -0.0758  0.0768
    34. (0.00017) RY*( 5)Br   1           s( 32.32%)p 0.88( 28.33%)d 1.09( 35.20%)
                                                  f 0.13(  4.15%)
                                           -0.0000 -0.0000 -0.0000 -0.0029  0.5646
                                           -0.0662 -0.0000  0.0000 -0.0002 -0.0981
                                            0.1235  0.0000  0.0000 -0.0011 -0.4001
                                            0.1085  0.0000  0.0000 -0.0091 -0.2911
                                            0.0404  0.0000 -0.0992  0.4529 -0.0502
                                            0.0000  0.0881  0.2183 -0.0286 -0.0000
                                            0.1208  0.0541 -0.0051  0.0000 -0.0537
                                           -0.0047 -0.0443  0.0000  0.0076 -0.2364
                                            0.0048 -0.0566 -0.0693 -0.0541  0.0381
                                           -0.0085  0.0597  0.1597
    35. (0.00012) RY*( 6)Br   1           s(  0.45%)p44.48( 20.03%)d99.99( 72.74%)
                                                  f15.05(  6.78%)
                                            0.0000  0.0000 -0.0000  0.0052 -0.0272
                                            0.0611 -0.0000 -0.0000  0.0222 -0.4002
                                            0.1431 -0.0000  0.0000  0.0180 -0.0680
                                           -0.0453 -0.0000  0.0000  0.0076  0.1018
                                            0.0423 -0.0000 -0.0654  0.0962 -0.0140
                                            0.0000 -0.4316 -0.1608  0.0104 -0.0000
                                            0.3973  0.3675  0.0276 -0.0000  0.1639
                                            0.1824  0.0472  0.0000  0.3242  0.1969
                                            0.0381  0.1366  0.0855 -0.0692 -0.1710
                                            0.0831  0.0087 -0.0285
    36. (0.00004) RY*( 7)Br   1           s( 20.67%)p 1.24( 25.74%)d 1.34( 27.64%)
                                                  f 1.26( 25.95%)
    37. (0.00000) RY*( 8)Br   1           s(  0.20%)p99.99( 99.23%)d 2.67(  0.54%)
                                                  f 0.15(  0.03%)
    38. (0.00001) RY*( 9)Br   1           s( 11.30%)p 3.53( 39.86%)d 4.22( 47.61%)
                                                  f 0.11(  1.23%)
    39. (0.00001) RY*(10)Br   1           s(  1.73%)p19.22( 33.19%)d37.63( 64.99%)
                                                  f 0.05(  0.09%)
    40. (0.00000) RY*(11)Br   1           s(  0.36%)p 0.88(  0.31%)d99.99( 99.02%)
                                                  f 0.88(  0.31%)
    41. (0.00000) RY*(12)Br   1           s(  4.93%)p18.34( 90.33%)d 0.73(  3.59%)
                                                  f 0.23(  1.16%)
    42. (0.00000) RY*(13)Br   1           s(  1.25%)p 3.76(  4.70%)d74.95( 93.77%)
                                                  f 0.22(  0.27%)
    43. (0.00000) RY*(14)Br   1           s(  0.09%)p 2.50(  0.22%)d99.99( 99.50%)
                                                  f 2.30(  0.20%)
    44. (0.00001) RY*(15)Br   1           s(  0.39%)p90.31( 35.18%)d99.99( 53.87%)
                                                  f27.11( 10.56%)
    45. (0.00000) RY*(16)Br   1           s(  0.14%)p 3.83(  0.52%)d99.99( 99.14%)
                                                  f 1.52(  0.21%)
    46. (0.00000) RY*(17)Br   1           s(  0.00%)p 1.00(  0.01%)d99.99( 99.97%)
                                                  f 0.70(  0.01%)
    47. (0.00000) RY*(18)Br   1           s( 97.66%)p 0.00(  0.26%)d 0.02(  1.97%)
                                                  f 0.00(  0.11%)
    48. (0.00000) RY*(19)Br   1           s(  3.22%)p 0.56(  1.81%)d29.05( 93.66%)
                                                  f 0.41(  1.31%)
    49. (0.00000) RY*(20)Br   1           s(  1.23%)p 1.39(  1.71%)d77.95( 96.00%)
                                                  f 0.86(  1.06%)
    50. (0.00000) RY*(21)Br   1           s(  0.17%)p99.99( 94.71%)d20.32(  3.52%)
                                                  f 9.18(  1.59%)
    51. (0.00000) RY*(22)Br   1           s(  9.94%)p 2.54( 25.20%)d 4.74( 47.07%)
                                                  f 1.79( 17.79%)
    52. (0.00000) RY*(23)Br   1           s(  0.00%)p 1.00(  0.20%)d99.99( 99.72%)
                                                  f 0.40(  0.08%)
    53. (0.00000) RY*(24)Br   1           s(  0.09%)p 1.56(  0.14%)d52.64(  4.68%)
                                                  f99.99( 95.10%)
    54. (0.00000) RY*(25)Br   1           s(  0.02%)p29.82(  0.71%)d99.99(  3.93%)
                                                  f99.99( 95.34%)
    55. (0.00000) RY*(26)Br   1           s(  0.30%)p 0.50(  0.15%)d 3.85(  1.17%)
                                                  f99.99( 98.38%)
    56. (0.00000) RY*(27)Br   1           s(  0.51%)p 0.63(  0.32%)d13.30(  6.84%)
                                                  f99.99( 92.32%)
    57. (0.00000) RY*(28)Br   1           s(  0.07%)p 5.53(  0.37%)d38.34(  2.59%)
                                                  f99.99( 96.96%)
    58. (0.00000) RY*(29)Br   1           s(  1.99%)p 8.36( 16.60%)d 4.74(  9.42%)
                                                  f36.25( 71.99%)
    59. (0.00001) RY*(30)Br   1           s(  0.69%)p 9.93(  6.82%)d42.99( 29.54%)
                                                  f91.59( 62.95%)
    60. (0.00452) RY*( 1) C   2           s( 31.43%)p 1.83( 57.41%)d 0.34( 10.77%)
                                                  f 0.01(  0.39%)
                                            0.0000  0.0117  0.5518 -0.0985  0.0024
                                           -0.0433  0.6700  0.0997 -0.0283  0.1635
                                            0.0780  0.0099 -0.2821 -0.0118 -0.1141
                                           -0.1025  0.0314  0.0619  0.0997  0.0415
                                            0.1305 -0.0008  0.1791 -0.1362  0.0005
                                           -0.0067  0.0038 -0.0350 -0.0282 -0.0406
                                            0.0118
    61. (0.00334) RY*( 2) C   2           s(  8.28%)p 7.81( 64.70%)d 3.20( 26.50%)
                                                  f 0.06(  0.52%)
                                            0.0000  0.0029  0.2877  0.0076 -0.0003
                                           -0.0360  0.0158 -0.0199 -0.0149  0.3857
                                           -0.0296 -0.0077  0.6974  0.0938 -0.3333
                                            0.1595 -0.1679  0.0484  0.0513 -0.0411
                                            0.0151  0.0529 -0.0985  0.2845 -0.0191
                                           -0.0070 -0.0464  0.0150  0.0279 -0.0399
                                            0.0064
    62. (0.00219) RY*( 3) C   2           s(  3.91%)p19.61( 76.58%)d 4.87( 19.03%)
                                                  f 0.12(  0.48%)
                                            0.0000 -0.0026  0.1974  0.0056  0.0062
                                           -0.0188 -0.4716  0.0864  0.0052  0.6372
                                           -0.1496  0.0011 -0.3274  0.0040 -0.0600
                                           -0.0823 -0.0380 -0.0145 -0.3000  0.1481
                                           -0.1423  0.0367  0.1224 -0.1724 -0.0167
                                           -0.0088  0.0215  0.0583  0.0072  0.0195
                                            0.0137
    63. (0.00158) RY*( 4) C   2           s( 11.05%)p 1.40( 15.50%)d 6.44( 71.13%)
                                                  f 0.21(  2.32%)
                                           -0.0000 -0.0045  0.2586 -0.2086  0.0069
                                            0.0120 -0.2577  0.0612  0.0146 -0.2412
                                            0.1188  0.0146  0.0042 -0.1095  0.0497
                                           -0.1061 -0.5568  0.1318 -0.1308 -0.0201
                                            0.4932  0.0297 -0.2489 -0.2158 -0.0516
                                            0.0730  0.0218 -0.0101  0.0362 -0.1107
                                           -0.0332
    64. (0.00103) RY*( 5) C   2           s(  6.17%)p 4.14( 25.56%)d10.75( 66.32%)
                                                  f 0.32(  1.95%)
                                            0.0000  0.0152 -0.0327  0.2458 -0.0022
                                           -0.0396  0.2150 -0.3498 -0.0316 -0.1805
                                           -0.1998 -0.0101  0.0586 -0.0920 -0.1808
                                           -0.1401 -0.4203  0.0498 -0.3708  0.1691
                                           -0.2965 -0.3822  0.1634 -0.0710 -0.0260
                                            0.0007  0.0147  0.0611  0.0873  0.0235
                                            0.0816
    65. (0.00047) RY*( 6) C   2           s(  5.34%)p 1.22(  6.52%)d15.93( 85.02%)
                                                  f 0.59(  3.13%)
                                           -0.0000 -0.0028 -0.0674  0.2182  0.0347
                                            0.0325  0.1783  0.0686 -0.0085 -0.0740
                                           -0.0577  0.0188 -0.0807  0.1091 -0.1956
                                            0.1594  0.1712 -0.3605 -0.4780  0.3386
                                            0.3655  0.2523 -0.2659  0.1272 -0.0032
                                            0.0001 -0.0275  0.1096  0.1048  0.0764
                                            0.0412
    66. (0.00040) RY*( 7) C   2           s( 23.06%)p 1.17( 27.10%)d 2.07( 47.75%)
                                                  f 0.09(  2.09%)
                                            0.0000  0.0066 -0.2376  0.4088  0.0840
                                           -0.0100  0.0933 -0.0301  0.0149  0.1679
                                            0.0099  0.0077 -0.3779  0.2998 -0.2459
                                            0.0667 -0.3132  0.2784  0.2366 -0.2632
                                            0.0136  0.1158 -0.3100  0.0446  0.0951
                                           -0.0106 -0.0396 -0.0093  0.0742 -0.0318
                                           -0.0601
    67. (0.00019) RY*( 8) C   2           s(  0.97%)p21.53( 20.87%)d79.79( 77.35%)
                                                  f 0.83(  0.80%)
                                           -0.0000  0.0061 -0.0505  0.0818 -0.0203
                                            0.0303  0.2017  0.0569 -0.0144  0.1688
                                           -0.2666  0.0118  0.2097 -0.1415  0.2506
                                           -0.2181  0.2925  0.2876 -0.3572 -0.4139
                                            0.0620 -0.0578 -0.3561 -0.2491  0.0606
                                           -0.0184  0.0271  0.0011  0.0348 -0.0142
                                            0.0432
    68. (0.00014) RY*( 9) C   2           s( 30.99%)p 1.29( 39.90%)d 0.85( 26.25%)
                                                  f 0.09(  2.87%)
                                            0.0000 -0.0077  0.4926  0.2540  0.0510
                                           -0.0128 -0.2560  0.2399 -0.0378 -0.4777
                                            0.0037  0.0202  0.0169  0.2131 -0.2260
                                           -0.0326  0.2288  0.1332 -0.0767 -0.1216
                                           -0.3216  0.0889 -0.0508 -0.0753  0.1075
                                           -0.0227  0.0253  0.0338  0.0454  0.1032
                                           -0.0464
    69. (0.00006) RY*(10) C   2           s( 36.45%)p 0.39( 14.05%)d 1.18( 43.04%)
                                                  f 0.18(  6.46%)
    70. (0.00000) RY*(11) C   2           s(  7.18%)p 0.41(  2.95%)d12.51( 89.84%)
                                                  f 0.00(  0.02%)
    71. (0.00000) RY*(12) C   2           s( 99.09%)p 0.00(  0.41%)d 0.00(  0.49%)
                                                  f 0.00(  0.01%)
    72. (0.00000) RY*(13) C   2           s(  0.41%)p14.11(  5.80%)d99.99( 93.74%)
                                                  f 0.13(  0.05%)
    73. (0.00000) RY*(14) C   2           s(  1.69%)p49.24( 83.44%)d 8.74( 14.81%)
                                                  f 0.03(  0.06%)
    74. (0.00001) RY*(15) C   2           s(  7.09%)p 0.54(  3.85%)d12.54( 88.85%)
                                                  f 0.03(  0.22%)
    75. (0.00000) RY*(16) C   2           s(  2.44%)p21.49( 52.48%)d18.42( 45.00%)
                                                  f 0.03(  0.08%)
    76. (0.00000) RY*(17) C   2           s(  7.77%)p 9.68( 75.18%)d 2.07( 16.07%)
                                                  f 0.13(  0.98%)
    77. (0.00001) RY*(18) C   2           s(  5.47%)p 0.83(  4.55%)d16.45( 89.97%)
                                                  f 0.00(  0.01%)
    78. (0.00000) RY*(19) C   2           s(  2.64%)p 8.38( 22.14%)d28.47( 75.21%)
                                                  f 0.00(  0.01%)
    79. (0.00000) RY*(20) C   2           s(  3.37%)p 0.06(  0.20%)d 0.55(  1.84%)
                                                  f28.03( 94.59%)
    80. (0.00000) RY*(21) C   2           s(  0.18%)p 0.64(  0.11%)d 2.47(  0.44%)
                                                  f99.99( 99.27%)
    81. (0.00000) RY*(22) C   2           s(  0.09%)p 2.02(  0.19%)d 4.78(  0.45%)
                                                  f99.99( 99.27%)
    82. (0.00000) RY*(23) C   2           s(  0.01%)p26.37(  0.34%)d99.99(  2.66%)
                                                  f99.99( 96.98%)
    83. (0.00000) RY*(24) C   2           s(  4.19%)p 0.06(  0.27%)d 0.61(  2.56%)
                                                  f22.17( 92.98%)
    84. (0.00000) RY*(25) C   2           s(  0.31%)p 1.81(  0.57%)d 8.16(  2.57%)
                                                  f99.99( 96.55%)
    85. (0.00000) RY*(26) C   2           s(  0.18%)p 3.99(  0.73%)d 6.68(  1.23%)
                                                  f99.99( 97.86%)
    86. (0.00427) RY*( 1) C   3           s( 25.93%)p 1.91( 49.56%)d 0.89( 23.17%)
                                                  f 0.05(  1.35%)
                                           -0.0000 -0.0005  0.5071  0.0463  0.0017
                                           -0.0040 -0.0662  0.0783  0.0100 -0.5519
                                            0.1188 -0.0206 -0.4031  0.0571  0.2297
                                           -0.0825 -0.2105 -0.0428 -0.2197  0.1054
                                           -0.2332 -0.0377  0.0223 -0.1014 -0.0138
                                            0.0284 -0.0011  0.0096  0.0505  0.0755
                                            0.0644
    87. (0.00329) RY*( 2) C   3           s(  2.42%)p30.66( 74.26%)d 9.32( 22.58%)
                                                  f 0.30(  0.74%)
                                           -0.0000 -0.0031  0.1538  0.0238  0.0010
                                           -0.0117 -0.7067  0.0140  0.0105  0.0506
                                            0.1212  0.0065  0.4739 -0.0286 -0.0092
                                            0.0965  0.0076 -0.0276  0.0162 -0.0479
                                           -0.4476  0.0137 -0.0349  0.1062  0.0002
                                           -0.0363  0.0324 -0.0003  0.0011  0.0524
                                            0.0475
    88. (0.00190) RY*( 3) C   3           s(  0.96%)p14.90( 14.30%)d85.55( 82.06%)
                                                  f 2.80(  2.69%)
                                           -0.0000  0.0001  0.0917 -0.0335 -0.0073
                                            0.0056  0.2346 -0.0289  0.0044 -0.0767
                                            0.0026 -0.0075  0.0558  0.2792  0.1953
                                           -0.1432  0.5836 -0.1010  0.4991  0.0444
                                           -0.3499  0.0433  0.0537 -0.1814  0.0875
                                            0.0414 -0.0093 -0.0138 -0.0961  0.0680
                                            0.0578
    89. (0.00104) RY*( 4) C   3           s( 17.54%)p 3.19( 55.97%)d 1.36( 23.89%)
                                                  f 0.15(  2.61%)
                                           -0.0000  0.0019  0.3226 -0.2652 -0.0306
                                            0.0091  0.2608  0.1827  0.0120 -0.0688
                                           -0.2924  0.0049  0.5775  0.1853  0.3128
                                           -0.0417 -0.2673  0.1209  0.0123 -0.0729
                                            0.2081  0.0384 -0.0308  0.0443  0.0545
                                            0.0043  0.0474 -0.0054  0.1283  0.0647
                                           -0.0121
    90. (0.00047) RY*( 5) C   3           s(  3.89%)p 6.90( 26.80%)d16.57( 64.41%)
                                                  f 1.26(  4.90%)
                                            0.0000 -0.0055  0.1795 -0.0807  0.0100
                                            0.0165 -0.1214  0.0847 -0.0552  0.3558
                                           -0.1062  0.0129 -0.3228  0.0227 -0.0506
                                            0.1302 -0.4597 -0.0088  0.6084 -0.0109
                                           -0.0675 -0.0219  0.1614 -0.1086  0.1168
                                           -0.0411  0.0582  0.0894  0.1429  0.0290
                                           -0.0325
    91. (0.00027) RY*( 6) C   3           s( 15.91%)p 3.98( 63.34%)d 1.15( 18.23%)
                                                  f 0.16(  2.52%)
                                            0.0000  0.0181 -0.0515  0.3950 -0.0087
                                           -0.0364 -0.0697 -0.2501 -0.0348 -0.4316
                                           -0.6055 -0.0089  0.0788  0.0653 -0.3294
                                           -0.0471 -0.0983  0.0389  0.2094 -0.0850
                                           -0.0254 -0.0203 -0.0906 -0.0081 -0.0334
                                           -0.0632  0.0111  0.0206 -0.0247 -0.1375
                                           -0.0074
    92. (0.00012) RY*( 7) C   3           s(  8.64%)p 5.90( 50.98%)d 4.41( 38.10%)
                                                  f 0.26(  2.28%)
                                            0.0000 -0.0178  0.1989  0.2085  0.0555
                                           -0.0274  0.5237  0.2048  0.0074 -0.0025
                                            0.2980 -0.0216  0.2090 -0.2445 -0.4244
                                            0.1591 -0.1419  0.0252  0.0430  0.0057
                                           -0.3620  0.0328 -0.1270  0.0680  0.0090
                                           -0.0850  0.0556 -0.0139 -0.0094 -0.0947
                                           -0.0563
    93. (0.00008) RY*( 8) C   3           s( 31.43%)p 0.77( 24.09%)d 1.12( 35.11%)
                                                  f 0.30(  9.38%)
    94. (0.00005) RY*( 9) C   3           s(  1.83%)p26.55( 48.68%)d22.84( 41.88%)
                                                  f 4.15(  7.61%)
    95. (0.00001) RY*(10) C   3           s( 30.27%)p 0.84( 25.51%)d 1.45( 43.79%)
                                                  f 0.01(  0.43%)
    96. (0.00000) RY*(11) C   3           s(  0.84%)p 5.89(  4.96%)d99.99( 94.19%)
                                                  f 0.02(  0.02%)
    97. (0.00000) RY*(12) C   3           s( 99.59%)p 0.00(  0.21%)d 0.00(  0.19%)
                                                  f 0.00(  0.01%)
    98. (0.00000) RY*(13) C   3           s(  1.04%)p 3.83(  3.99%)d91.05( 94.89%)
                                                  f 0.08(  0.08%)
    99. (0.00001) RY*(14) C   3           s( 28.92%)p 0.25(  7.14%)d 2.07( 59.86%)
                                                  f 0.14(  4.08%)
   100. (0.00000) RY*(15) C   3           s(  0.54%)p 4.86(  2.64%)d99.99( 96.68%)
                                                  f 0.26(  0.14%)
   101. (0.00000) RY*(16) C   3           s( 16.86%)p 2.54( 42.86%)d 2.30( 38.84%)
                                                  f 0.08(  1.43%)
   102. (0.00000) RY*(17) C   3           s(  0.04%)p55.29(  2.22%)d99.99( 97.69%)
                                                  f 1.27(  0.05%)
   103. (0.00000) RY*(18) C   3           s(  5.68%)p14.71( 83.61%)d 1.80( 10.21%)
                                                  f 0.09(  0.50%)
   104. (0.00000) RY*(19) C   3           s(  0.29%)p41.08( 11.82%)d99.99( 87.82%)
                                                  f 0.25(  0.07%)
   105. (0.00000) RY*(20) C   3           s(  3.11%)p 0.48(  1.50%)d 0.93(  2.91%)
                                                  f29.73( 92.48%)
   106. (0.00000) RY*(21) C   3           s(  0.10%)p15.91(  1.53%)d20.01(  1.92%)
                                                  f99.99( 96.46%)
   107. (0.00000) RY*(22) C   3           s(  0.78%)p 1.80(  1.40%)d 3.86(  3.00%)
                                                  f99.99( 94.83%)
   108. (0.00000) RY*(23) C   3           s(  0.27%)p 1.68(  0.46%)d 9.63(  2.62%)
                                                  f99.99( 96.65%)
   109. (0.00000) RY*(24) C   3           s(  2.28%)p 0.59(  1.35%)d 3.59(  8.17%)
                                                  f38.77( 88.21%)
   110. (0.00000) RY*(25) C   3           s(  0.70%)p 2.83(  1.97%)d 6.05(  4.21%)
                                                  f99.99( 93.12%)
   111. (0.00000) RY*(26) C   3           s(  0.14%)p 2.34(  0.34%)d15.27(  2.21%)
                                                  f99.99( 97.31%)
   112. (0.00423) RY*( 1) C   4           s( 24.13%)p 2.20( 53.15%)d 0.90( 21.79%)
                                                  f 0.04(  0.93%)
                                           -0.0000 -0.0014  0.4906  0.0255  0.0008
                                           -0.0037 -0.4998 -0.0599  0.0031  0.3147
                                            0.0605 -0.0165 -0.4173  0.0318  0.3242
                                           -0.1812  0.0526  0.0259 -0.0749 -0.0190
                                           -0.0626  0.0450  0.1380 -0.2134  0.0281
                                           -0.0248  0.0169 -0.0107  0.0527 -0.0274
                                           -0.0629
   113. (0.00130) RY*( 2) C   4           s(  8.45%)p 8.78( 74.20%)d 1.86( 15.71%)
                                                  f 0.19(  1.64%)
                                           -0.0000 -0.0018  0.2624 -0.1249 -0.0003
                                           -0.0086 -0.3567  0.0332 -0.0048 -0.5903
                                            0.1330  0.0065  0.4754  0.1463  0.1623
                                            0.0520  0.2017 -0.1499 -0.1463  0.0856
                                            0.0295  0.1787  0.0375  0.0439  0.0705
                                            0.0270  0.0034 -0.0404  0.0908 -0.0021
                                           -0.0289
   114. (0.00080) RY*( 3) C   4           s(  7.27%)p10.61( 77.12%)d 1.68( 12.22%)
                                                  f 0.47(  3.39%)
                                           -0.0000  0.0008  0.2300 -0.1393 -0.0198
                                           -0.0011  0.3896 -0.2968  0.0044  0.4868
                                           -0.0201  0.0060  0.4893  0.2333  0.1560
                                           -0.0798  0.2232 -0.0916 -0.0896  0.0371
                                            0.0443 -0.1038  0.0905 -0.0544  0.0311
                                           -0.0325  0.0641 -0.0932  0.0608 -0.0356
                                           -0.1187
   115. (0.00035) RY*( 4) C   4           s(  5.59%)p 7.02( 39.27%)d 9.31( 52.06%)
                                                  f 0.55(  3.08%)
                                            0.0000  0.0037  0.2318 -0.0450 -0.0126
                                            0.0462 -0.3879 -0.0781 -0.0205  0.2111
                                           -0.0763 -0.0161  0.4132 -0.1104 -0.4438
                                            0.0596 -0.4297  0.1216  0.2864 -0.0411
                                           -0.1187 -0.0644  0.1185  0.0684 -0.0758
                                           -0.0507  0.0551  0.0482 -0.1207 -0.0318
                                            0.0397
   116. (0.00024) RY*( 5) C   4           s(  0.40%)p43.69( 17.63%)d99.99( 72.70%)
                                                  f22.93(  9.26%)
                                            0.0000  0.0006 -0.0374  0.0488  0.0161
                                            0.0090 -0.1821 -0.1476  0.0132  0.1804
                                            0.2696  0.0018 -0.0894 -0.0889 -0.5084
                                            0.2296  0.4776 -0.2006 -0.2037  0.0041
                                           -0.2777 -0.0985 -0.1147  0.0782  0.1073
                                            0.0745 -0.1392 -0.0432  0.1423  0.1834
                                            0.0193
   117. (0.00015) RY*( 6) C   4           s( 35.18%)p 1.27( 44.77%)d 0.41( 14.31%)
                                                  f 0.16(  5.74%)
                                           -0.0000  0.0040 -0.2194  0.5496 -0.0407
                                           -0.0026 -0.1663 -0.2907 -0.0008  0.0133
                                            0.2648 -0.0105  0.1040  0.5043  0.0405
                                           -0.1634 -0.1484  0.0691 -0.0234 -0.0353
                                            0.0104  0.0022 -0.2796 -0.0884 -0.1636
                                            0.1081  0.0141 -0.0066 -0.0809  0.0539
                                            0.0964
   118. (0.00012) RY*( 7) C   4           s( 10.86%)p 1.03( 11.23%)d 6.95( 75.50%)
                                                  f 0.22(  2.41%)
                                            0.0000  0.0009  0.1822  0.2721  0.0367
                                            0.0032 -0.1222  0.2217 -0.0265  0.1816
                                           -0.1110 -0.0017  0.0182 -0.0424 -0.0490
                                            0.1749  0.1514 -0.1686  0.0880  0.0776
                                            0.7511 -0.1012 -0.1836  0.2208  0.0278
                                            0.0567 -0.0660 -0.0223 -0.0448 -0.0417
                                            0.1075
   119. (0.00003) RY*( 8) C   4           s( 20.04%)p 1.94( 38.97%)d 1.56( 31.28%)
                                                  f 0.48(  9.71%)
   120. (0.00000) RY*( 9) C   4           s( 19.59%)p 0.24(  4.75%)d 3.68( 72.10%)
                                                  f 0.18(  3.56%)
   121. (0.00000) RY*(10) C   4           s(  6.13%)p13.95( 85.50%)d 0.74(  4.55%)
                                                  f 0.62(  3.83%)
   122. (0.00000) RY*(11) C   4           s(  0.32%)p11.75(  3.80%)d99.99( 95.24%)
                                                  f 1.97(  0.64%)
   123. (0.00001) RY*(12) C   4           s( 33.25%)p 1.25( 41.43%)d 0.41( 13.75%)
                                                  f 0.35( 11.57%)
   124. (0.00000) RY*(13) C   4           s(  0.19%)p10.90(  2.04%)d99.99( 97.01%)
                                                  f 4.08(  0.76%)
   125. (0.00000) RY*(14) C   4           s(  0.03%)p60.06(  1.74%)d99.99( 98.11%)
                                                  f 4.07(  0.12%)
   126. (0.00000) RY*(15) C   4           s(  0.07%)p 7.70(  0.54%)d99.99( 99.30%)
                                                  f 1.18(  0.08%)
   127. (0.00000) RY*(16) C   4           s(  3.41%)p22.82( 77.91%)d 4.56( 15.58%)
                                                  f 0.91(  3.10%)
   128. (0.00000) RY*(17) C   4           s(  4.35%)p 1.95(  8.46%)d19.44( 84.56%)
                                                  f 0.60(  2.62%)
   129. (0.00000) RY*(18) C   4           s( 99.54%)p 0.00(  0.23%)d 0.00(  0.18%)
                                                  f 0.00(  0.05%)
   130. (0.00000) RY*(19) C   4           s(  0.23%)p11.93(  2.79%)d99.99( 96.86%)
                                                  f 0.49(  0.11%)
   131. (0.00000) RY*(20) C   4           s(  1.57%)p 2.74(  4.31%)d 3.81(  5.98%)
                                                  f56.16( 88.15%)
   132. (0.00000) RY*(21) C   4           s(  1.42%)p 1.95(  2.76%)d 1.43(  2.03%)
                                                  f66.26( 93.79%)
   133. (0.00000) RY*(22) C   4           s(  1.27%)p 1.44(  1.84%)d 3.50(  4.46%)
                                                  f72.54( 92.43%)
   134. (0.00000) RY*(23) C   4           s(  0.91%)p 1.54(  1.40%)d 3.33(  3.02%)
                                                  f99.99( 94.67%)
   135. (0.00000) RY*(24) C   4           s(  0.23%)p 0.60(  0.14%)d29.81(  6.79%)
                                                  f99.99( 92.85%)
   136. (0.00000) RY*(25) C   4           s(  1.39%)p 0.84(  1.17%)d 2.85(  3.96%)
                                                  f67.21( 93.48%)
   137. (0.00000) RY*(26) C   4           s( 14.15%)p 0.25(  3.57%)d 0.02(  0.28%)
                                                  f 5.80( 82.00%)
   138. (0.00044) RY*( 1) H   5           s( 89.84%)p 0.11( 10.16%)
                                           -0.0007  0.9478  0.0092 -0.0882 -0.2383
                                            0.1925
   139. (0.00015) RY*( 2) H   5           s( 85.51%)p 0.17( 14.49%)
                                            0.0013 -0.0174  0.9246  0.2834  0.0608
                                            0.2467
   140. (0.00011) RY*( 3) H   5           s( 13.48%)p 6.42( 86.52%)
                                           -0.0005 -0.0964  0.3542 -0.7960 -0.3457
                                           -0.3348
   141. (0.00005) RY*( 4) H   5           s( 10.89%)p 8.19( 89.11%)
   142. (0.00002) RY*( 5) H   5           s(  0.32%)p99.99( 99.68%)
   143. (0.00065) RY*( 1) H   6           s( 94.92%)p 0.05(  5.08%)
                                           -0.0022  0.9743  0.0035  0.0684 -0.2145
                                            0.0109
   144. (0.00015) RY*( 2) H   6           s( 98.13%)p 0.02(  1.87%)
                                            0.0014 -0.0191  0.9904  0.1220 -0.0341
                                           -0.0520
   145. (0.00010) RY*( 3) H   6           s(  0.99%)p99.94( 99.01%)
   146. (0.00005) RY*( 4) H   6           s(  4.69%)p20.34( 95.31%)
   147. (0.00002) RY*( 5) H   6           s(  1.31%)p75.22( 98.69%)
   148. (0.00065) RY*( 1) H   7           s( 93.05%)p 0.07(  6.95%)
                                           -0.0017  0.9646  0.0079 -0.2278  0.1318
                                            0.0153
   149. (0.00011) RY*( 2) H   7           s( 75.43%)p 0.33( 24.57%)
                                           -0.0030 -0.0666  0.8659  0.0345  0.4820
                                            0.1105
   150. (0.00011) RY*( 3) H   7           s( 12.35%)p 7.10( 87.65%)
                                           -0.0008 -0.0859  0.3407 -0.6941 -0.6094
                                            0.1528
   151. (0.00006) RY*( 4) H   7           s( 17.77%)p 4.63( 82.23%)
   152. (0.00001) RY*( 5) H   7           s(  1.44%)p68.48( 98.56%)
   153. (0.00043) RY*( 1) H   8           s( 93.18%)p 0.07(  6.82%)
                                           -0.0028  0.9648  0.0309 -0.1555  0.1499
                                            0.1466
   154. (0.00014) RY*( 2) H   8           s( 80.72%)p 0.24( 19.28%)
                                           -0.0015 -0.1191  0.8905 -0.1939  0.3938
                                           -0.0124
   155. (0.00010) RY*( 3) H   8           s(  5.62%)p16.81( 94.38%)
   156. (0.00004) RY*( 4) H   8           s( 19.83%)p 4.04( 80.17%)
   157. (0.00002) RY*( 5) H   8           s(  0.68%)p99.99( 99.32%)
   158. (0.00031) RY*( 1) H   9           s( 87.71%)p 0.14( 12.29%)
                                           -0.0015  0.9351  0.0510 -0.2569  0.0995
                                            0.2169
   159. (0.00013) RY*( 2) H   9           s( 74.94%)p 0.33( 25.06%)
                                           -0.0018 -0.1897  0.8446 -0.4984  0.0459
                                            0.0079
   160. (0.00010) RY*( 3) H   9           s( 17.97%)p 4.56( 82.03%)
                                            0.0007  0.0412  0.4219  0.7304  0.2564
                                            0.4702
   161. (0.00005) RY*( 4) H   9           s( 18.94%)p 4.28( 81.06%)
   162. (0.00002) RY*( 5) H   9           s(  0.46%)p99.99( 99.54%)
   163. (0.00052) RY*( 1) H  10           s( 98.46%)p 0.02(  1.54%)
                                           -0.0011  0.9923  0.0066 -0.0909  0.0493
                                            0.0684
   164. (0.00018) RY*( 2) H  10           s( 96.97%)p 0.03(  3.03%)
                                            0.0022 -0.0280  0.9843 -0.1068  0.0912
                                            0.1030
   165. (0.00014) RY*( 3) H  10           s(  2.09%)p46.80( 97.91%)
                                            0.0004  0.0781  0.1218  0.4884 -0.8523
                                            0.1187
   166. (0.00010) RY*( 4) H  10           s(  0.04%)p99.99( 99.96%)
   167. (0.00004) RY*( 5) H  10           s(  2.47%)p39.52( 97.53%)
   168. (0.13422) BD*( 1)Br   1 - C   2  
                ( 30.95%)   0.5564*Br   1 s(  5.04%)p18.80( 94.82%)d 0.03(  0.13%)
                                                  f 0.00(  0.01%)
                                           -0.0000 -0.0000  0.0001  0.2241  0.0136
                                           -0.0006  0.0000 -0.0001  0.8688  0.0125
                                           -0.0023 -0.0000 -0.0001 -0.2028  0.0046
                                            0.0019  0.0000 -0.0000  0.3899  0.0002
                                            0.0004  0.0000  0.0134 -0.0005 -0.0001
                                            0.0000  0.0155  0.0002  0.0001 -0.0000
                                           -0.0015 -0.0030 -0.0000 -0.0000  0.0227
                                           -0.0051 -0.0008 -0.0000 -0.0184  0.0003
                                            0.0008 -0.0028 -0.0049 -0.0027  0.0022
                                           -0.0011  0.0009  0.0038
                ( 69.05%)  -0.8309* C   2 s(  5.01%)p18.83( 94.40%)d 0.11(  0.56%)
                                                  f 0.00(  0.02%)
                                           -0.0001  0.2171 -0.0521 -0.0169  0.0008
                                           -0.7906 -0.0385  0.0127 -0.5557 -0.0119
                                            0.0003 -0.0905 -0.0133  0.0020  0.0257
                                            0.0031  0.0313 -0.0058  0.0030  0.0020
                                            0.0514 -0.0071 -0.0354  0.0041  0.0036
                                            0.0023 -0.0004 -0.0086 -0.0010 -0.0093
                                           -0.0024
   169. (0.07680) BD*( 1)Br   1 - C   3  
                ( 37.53%)   0.6126*Br   1 s(  5.95%)p15.78( 93.88%)d 0.03(  0.17%)
                                                  f 0.00(  0.01%)
                                            0.0000  0.0000 -0.0000 -0.2432 -0.0186
                                           -0.0004  0.0000  0.0001 -0.2612 -0.0111
                                           -0.0004 -0.0000  0.0000 -0.8962 -0.0162
                                           -0.0016  0.0000  0.0000  0.2588  0.0032
                                           -0.0001  0.0000 -0.0320  0.0047 -0.0009
                                           -0.0000  0.0001 -0.0032  0.0007  0.0000
                                            0.0082  0.0007  0.0003 -0.0000  0.0067
                                           -0.0029  0.0015  0.0000  0.0222 -0.0012
                                           -0.0001 -0.0008  0.0048  0.0044 -0.0034
                                           -0.0001  0.0019 -0.0032
                ( 62.47%)  -0.7904* C   3 s(  8.81%)p10.27( 90.55%)d 0.07(  0.62%)
                                                  f 0.00(  0.02%)
                                            0.0001 -0.2951  0.0179  0.0265 -0.0001
                                            0.7878 -0.0111 -0.0102  0.5280 -0.0264
                                           -0.0112  0.0711  0.0067  0.0013 -0.0587
                                            0.0028 -0.0025  0.0008  0.0197 -0.0053
                                            0.0177 -0.0064  0.0437 -0.0045  0.0022
                                           -0.0038 -0.0059  0.0024 -0.0044 -0.0095
                                           -0.0012
   170. (0.01007) BD*( 1) C   2 - C   3  
                ( 50.14%)   0.7081* C   2 s( 31.03%)p 2.21( 68.70%)d 0.01(  0.26%)
                                                  f 0.00(  0.01%)
                                            0.0000  0.5569  0.0133 -0.0033  0.0004
                                           -0.2862  0.0005  0.0125  0.6859 -0.0226
                                            0.0040 -0.3660 -0.0002 -0.0008 -0.0205
                                           -0.0050  0.0312  0.0005 -0.0271 -0.0077
                                            0.0043 -0.0097 -0.0151  0.0018  0.0059
                                            0.0012  0.0026 -0.0013  0.0047  0.0053
                                            0.0023
                ( 49.86%)  -0.7061* C   3 s( 31.69%)p 2.14( 67.92%)d 0.01(  0.38%)
                                                  f 0.00(  0.01%)
                                            0.0001  0.5626  0.0188 -0.0003  0.0003
                                            0.5208  0.0157  0.0068 -0.5120 -0.0048
                                            0.0102  0.3812  0.0100  0.0013 -0.0210
                                           -0.0095  0.0158  0.0055 -0.0390 -0.0030
                                           -0.0303  0.0035 -0.0220  0.0009 -0.0051
                                            0.0010  0.0040 -0.0071 -0.0052 -0.0040
                                           -0.0005
   171. (0.01088) BD*( 1) C   2 - C   4  
                ( 47.69%)   0.6906* C   2 s( 35.31%)p 1.83( 64.57%)d 0.00(  0.11%)
                                                  f 0.00(  0.01%)
                                           -0.0000 -0.5940 -0.0141 -0.0032  0.0001
                                           -0.5319  0.0142  0.0015  0.4637 -0.0119
                                           -0.0038  0.3838  0.0085  0.0027  0.0116
                                            0.0080  0.0137  0.0090 -0.0246 -0.0038
                                           -0.0003 -0.0023 -0.0012  0.0015 -0.0042
                                            0.0010  0.0007  0.0022 -0.0045  0.0040
                                            0.0072
                ( 52.31%)  -0.7232* C   4 s( 27.93%)p 2.57( 71.88%)d 0.01(  0.18%)
                                                  f 0.00(  0.01%)
                                           -0.0002 -0.5281 -0.0220 -0.0009 -0.0001
                                            0.6160  0.0129 -0.0039 -0.4509 -0.0093
                                            0.0064 -0.3683 -0.0085  0.0040  0.0272
                                            0.0049  0.0218  0.0035 -0.0198 -0.0018
                                           -0.0043 -0.0022  0.0093  0.0009  0.0056
                                            0.0021  0.0010  0.0013  0.0039 -0.0028
                                           -0.0051
   172. (0.01850) BD*( 1) C   2 - H  10  
                ( 36.20%)   0.6017* C   2 s( 28.87%)p 2.46( 70.92%)d 0.01(  0.20%)
                                                  f 0.00(  0.02%)
                                            0.0001 -0.5371  0.0122 -0.0055  0.0004
                                           -0.0313  0.0093  0.0006 -0.0277 -0.0059
                                           -0.0022 -0.8408 -0.0166 -0.0111 -0.0149
                                           -0.0009  0.0073 -0.0016 -0.0024 -0.0005
                                           -0.0037  0.0020 -0.0396 -0.0102 -0.0086
                                           -0.0012  0.0009 -0.0015  0.0092  0.0004
                                           -0.0011
                ( 63.80%)  -0.7988* H  10 s( 99.97%)p 0.00(  0.03%)
                                           -0.9998 -0.0026 -0.0000 -0.0031 -0.0000
                                            0.0180
   173. (0.01107) BD*( 1) C   3 - H   5  
                ( 35.94%)   0.5995* C   3 s( 29.71%)p 2.36( 70.07%)d 0.01(  0.21%)
                                                  f 0.00(  0.01%)
                                            0.0001 -0.5450  0.0026 -0.0053  0.0001
                                            0.2743 -0.0051  0.0014 -0.6507 -0.0038
                                           -0.0056 -0.4490  0.0164 -0.0047  0.0102
                                            0.0040  0.0266 -0.0007 -0.0329 -0.0069
                                            0.0008  0.0060 -0.0104  0.0015  0.0037
                                           -0.0008  0.0005  0.0044  0.0040 -0.0085
                                            0.0044
                ( 64.06%)  -0.8004* H   5 s( 99.97%)p 0.00(  0.03%)
                                           -0.9998 -0.0016  0.0001 -0.0087  0.0100
                                            0.0124
   174. (0.01238) BD*( 1) C   3 - H   6  
                ( 36.18%)   0.6015* C   3 s( 29.79%)p 2.35( 70.01%)d 0.01(  0.18%)
                                                  f 0.00(  0.01%)
                                           -0.0000  0.5457 -0.0086  0.0052 -0.0002
                                            0.1645 -0.0070  0.0022  0.1652  0.0172
                                           -0.0001 -0.8033  0.0072 -0.0089  0.0021
                                            0.0010 -0.0115 -0.0044  0.0115 -0.0067
                                            0.0032  0.0006  0.0380  0.0080 -0.0070
                                            0.0038  0.0081  0.0031 -0.0011  0.0007
                                           -0.0022
                ( 63.82%)  -0.7988* H   6 s( 99.97%)p 0.00(  0.03%)
                                            0.9998  0.0024 -0.0001 -0.0022  0.0008
                                            0.0183
   175. (0.00586) BD*( 1) C   4 - H   7  
                ( 37.71%)   0.6141* C   4 s( 25.05%)p 2.99( 74.81%)d 0.01(  0.13%)
                                                  f 0.00(  0.01%)
                                           -0.0000  0.5003 -0.0103  0.0002 -0.0002
                                           -0.1225  0.0121  0.0001 -0.0531 -0.0101
                                           -0.0021 -0.8544  0.0038 -0.0016 -0.0031
                                            0.0020  0.0179 -0.0005 -0.0052  0.0014
                                            0.0040 -0.0008  0.0307  0.0051 -0.0077
                                           -0.0016 -0.0026 -0.0015  0.0010  0.0009
                                            0.0045
                ( 62.29%)  -0.7892* H   7 s( 99.97%)p 0.00(  0.03%)
                                            0.9998  0.0015  0.0002  0.0011  0.0018
                                            0.0181
   176. (0.00691) BD*( 1) C   4 - H   8  
                ( 37.02%)   0.6084* C   4 s( 22.70%)p 3.40( 77.11%)d 0.01(  0.19%)
                                                  f 0.00(  0.01%)
                                            0.0003 -0.4764  0.0053  0.0019 -0.0002
                                           -0.7753 -0.0008 -0.0030 -0.3865  0.0085
                                           -0.0025 -0.1436  0.0051  0.0013 -0.0338
                                           -0.0012 -0.0170  0.0001 -0.0110  0.0007
                                           -0.0076 -0.0023  0.0155  0.0010  0.0044
                                            0.0034  0.0008  0.0011 -0.0028  0.0005
                                           -0.0047
                ( 62.98%)  -0.7936* H   8 s( 99.97%)p 0.00(  0.03%)
                                           -0.9998 -0.0010 -0.0002  0.0177  0.0049
                                            0.0013
   177. (0.00509) BD*( 1) C   4 - H   9  
                ( 37.25%)   0.6104* C   4 s( 24.35%)p 3.10( 75.48%)d 0.01(  0.17%)
                                                  f 0.00(  0.01%)
                                           -0.0001  0.4934 -0.0028  0.0008 -0.0001
                                            0.0345  0.0031 -0.0020 -0.8012  0.0036
                                           -0.0024  0.3339 -0.0095 -0.0021  0.0081
                                           -0.0013  0.0003  0.0000 -0.0325 -0.0002
                                           -0.0237 -0.0023 -0.0021 -0.0023 -0.0045
                                           -0.0038  0.0005 -0.0031  0.0009 -0.0015
                                            0.0045
                ( 62.75%)  -0.7921* H   9 s( 99.97%)p 0.00(  0.03%)
                                            0.9999  0.0007  0.0001 -0.0024  0.0154
                                           -0.0062


 NHO Directionality and "Bond Bending" (deviations from line of nuclear centers)

         [Thresholds for printing:  angular deviation  >  1.0 degree]
                                    hybrid p-character > 25.0%
                                    orbital occupancy  >  0.10e

                                Line of Centers        Hybrid 1              Hybrid 2
                                ---------------  -------------------   ------------------
                NBO               Theta   Phi    Theta   Phi    Dev    Theta   Phi    Dev
 ========================================================================================
     1. BD (   1)Br   1 - C   2    76.2   13.1    66.6  347.4  26.1     95.9  214.8  22.8
     2. BD (   1)Br   1 - C   3    94.6   50.4   105.4   73.4  25.1     95.0  212.6  20.1
     3. BD (   1) C   2 - C   3   117.1  123.7   117.0  112.3  10.2     62.1  317.0  11.8
     4. BD (   1) C   2 - C   4   117.1  320.6   120.0  319.0   3.2     64.2  144.0   3.4
     5. BD (   1) C   2 - H  10     0.8  113.6     2.7   59.0   2.4      --     --    --
     6. BD (   1) C   3 - H   5    56.9  114.9    58.5  112.3   2.7      --     --    --
     7. BD (   1) C   3 - H   6   165.5   44.4   163.2   48.8   2.6      --     --    --
     8. BD (   1) C   4 - H   7   171.7  200.7   171.4  210.6   1.5      --     --    --
     9. BD (   1) C   4 - H   8    79.6   27.5    81.0   26.0   2.0      --     --    --
    10. BD (   1) C   4 - H   9    66.2  272.8    68.1  272.5   1.9      --     --    --
    29. LP (   2)Br   1             --     --     28.2  135.1   --       --     --    --
   168. BD*(   1)Br   1 - C   2    76.2   13.1    66.6  347.4  26.1     95.9  214.8  22.8


 Second Order Perturbation Theory Analysis of Fock Matrix in NBO Basis

     Threshold for printing:   0.50 kcal/mol
                                                                              E(2)  E(j)-E(i) F(i,j)
         Donor NBO (i)                     Acceptor NBO (j)                 kcal/mol   a.u.    a.u. 
 ===================================================================================================

 within unit  1
   1. BD (   1)Br   1 - C   2        / 86. RY*(   1) C   3                    0.66    1.50    0.029
   1. BD (   1)Br   1 - C   2        / 87. RY*(   2) C   3                    0.99    1.49    0.035
   1. BD (   1)Br   1 - C   2        /168. BD*(   1)Br   1 - C   2            1.34    0.54    0.024
   1. BD (   1)Br   1 - C   2        /169. BD*(   1)Br   1 - C   3           27.03    0.58    0.112
   1. BD (   1)Br   1 - C   2        /173. BD*(   1) C   3 - H   5            0.91    0.97    0.027
   1. BD (   1)Br   1 - C   2        /174. BD*(   1) C   3 - H   6            0.73    0.97    0.024
   1. BD (   1)Br   1 - C   2        /176. BD*(   1) C   4 - H   8            2.61    0.98    0.046
   2. BD (   1)Br   1 - C   3        / 60. RY*(   1) C   2                    0.95    1.63    0.036
   2. BD (   1)Br   1 - C   3        /168. BD*(   1)Br   1 - C   2           19.73    0.59    0.098
   2. BD (   1)Br   1 - C   3        /169. BD*(   1)Br   1 - C   3            1.13    0.63    0.024
   2. BD (   1)Br   1 - C   3        /171. BD*(   1) C   2 - C   4            1.46    1.04    0.035
   3. BD (   1) C   2 - C   3        / 30. RY*(   1)Br   1                    0.71    1.90    0.033
   3. BD (   1) C   2 - C   3        /113. RY*(   2) C   4                    1.11    2.07    0.043
   3. BD (   1) C   2 - C   3        /114. RY*(   3) C   4                    0.62    2.20    0.033
   3. BD (   1) C   2 - C   3        /169. BD*(   1)Br   1 - C   3            0.76    0.88    0.024
   3. BD (   1) C   2 - C   3        /177. BD*(   1) C   4 - H   9            1.27    1.30    0.036
   4. BD (   1) C   2 - C   4        / 87. RY*(   2) C   3                    0.67    1.74    0.031
   4. BD (   1) C   2 - C   4        / 89. RY*(   4) C   3                    1.20    2.44    0.048
   4. BD (   1) C   2 - C   4        /168. BD*(   1)Br   1 - C   2            0.60    0.79    0.020
   4. BD (   1) C   2 - C   4        /173. BD*(   1) C   3 - H   5            1.64    1.22    0.040
   5. BD (   1) C   2 - H  10        / 86. RY*(   1) C   3                    1.99    1.62    0.051
   5. BD (   1) C   2 - H  10        / 87. RY*(   2) C   3                    0.58    1.61    0.027
   5. BD (   1) C   2 - H  10        /112. RY*(   1) C   4                    3.09    2.02    0.071
   5. BD (   1) C   2 - H  10        /168. BD*(   1)Br   1 - C   2            1.76    0.65    0.031
   5. BD (   1) C   2 - H  10        /173. BD*(   1) C   3 - H   5            0.80    1.09    0.026
   5. BD (   1) C   2 - H  10        /174. BD*(   1) C   3 - H   6            3.03    1.09    0.051
   5. BD (   1) C   2 - H  10        /175. BD*(   1) C   4 - H   7            2.69    1.11    0.049
   6. BD (   1) C   3 - H   5        / 61. RY*(   2) C   2                    1.28    1.98    0.045
   6. BD (   1) C   3 - H   5        / 62. RY*(   3) C   2                    1.53    2.07    0.050
   6. BD (   1) C   3 - H   5        /168. BD*(   1)Br   1 - C   2            0.66    0.66    0.019
   6. BD (   1) C   3 - H   5        /169. BD*(   1)Br   1 - C   3            1.57    0.70    0.030
   6. BD (   1) C   3 - H   5        /171. BD*(   1) C   2 - C   4            3.91    1.10    0.059
   6. BD (   1) C   3 - H   5        /172. BD*(   1) C   2 - H  10            0.71    1.11    0.025
   7. BD (   1) C   3 - H   6        / 31. RY*(   2)Br   1                    0.59    1.58    0.027
   7. BD (   1) C   3 - H   6        / 60. RY*(   1) C   2                    1.29    1.70    0.042
   7. BD (   1) C   3 - H   6        / 61. RY*(   2) C   2                    0.93    1.98    0.038
   7. BD (   1) C   3 - H   6        /169. BD*(   1)Br   1 - C   3            1.59    0.70    0.030
   7. BD (   1) C   3 - H   6        /172. BD*(   1) C   2 - H  10            3.13    1.11    0.053
   8. BD (   1) C   4 - H   7        / 62. RY*(   3) C   2                    0.77    2.01    0.035
   8. BD (   1) C   4 - H   7        /172. BD*(   1) C   2 - H  10            4.39    1.05    0.061
   9. BD (   1) C   4 - H   8        /168. BD*(   1)Br   1 - C   2           16.83    0.58    0.090
  10. BD (   1) C   4 - H   9        / 60. RY*(   1) C   2                    0.64    1.63    0.029
  10. BD (   1) C   4 - H   9        /168. BD*(   1)Br   1 - C   2            2.05    0.59    0.032
  10. BD (   1) C   4 - H   9        /170. BD*(   1) C   2 - C   3            5.44    1.02    0.067
  13. CR (   3)Br   1                /168. BD*(   1)Br   1 - C   2            0.58   11.56    0.076
  25. CR (   1) C   2                / 90. RY*(   5) C   3                    0.58   11.46    0.073
  25. CR (   1) C   2                /115. RY*(   4) C   4                    0.70   11.37    0.079
  25. CR (   1) C   2                /164. RY*(   2) H  10                    0.56   12.04    0.073
  25. CR (   1) C   2                /168. BD*(   1)Br   1 - C   2            1.32   10.26    0.107
  26. CR (   1) C   3                / 62. RY*(   3) C   2                    1.20   11.65    0.106
  26. CR (   1) C   3                / 68. RY*(   9) C   2                    0.69   11.87    0.081
  26. CR (   1) C   3                /169. BD*(   1)Br   1 - C   3            1.81   10.28    0.124
  27. CR (   1) C   4                / 61. RY*(   2) C   2                    0.80   11.46    0.085
  27. CR (   1) C   4                / 62. RY*(   3) C   2                    0.66   11.55    0.078
  28. LP (   1)Br   1                /168. BD*(   1)Br   1 - C   2            1.21    1.00    0.032
  28. LP (   1)Br   1                /169. BD*(   1)Br   1 - C   3            1.04    1.04    0.030
  29. LP (   2)Br   1                / 88. RY*(   3) C   3                    0.67    1.50    0.028
  29. LP (   2)Br   1                /171. BD*(   1) C   2 - C   4            1.27    0.86    0.030
  29. LP (   2)Br   1                /172. BD*(   1) C   2 - H  10            0.98    0.87    0.026
  29. LP (   2)Br   1                /173. BD*(   1) C   3 - H   5            1.78    0.85    0.035
  29. LP (   2)Br   1                /174. BD*(   1) C   3 - H   6            1.76    0.85    0.034
 168. BD*(   1)Br   1 - C   2        / 30. RY*(   1)Br   1                    0.72    1.06    0.094


 Natural Bond Orbitals (Summary):

                                                            Principal Delocalizations
           NBO                        Occupancy    Energy   (geminal,vicinal,remote)
 ====================================================================================
 Molecular unit  1  (C3H6Br)
     1. BD (   1)Br   1 - C   2          1.91789    -0.58479  169(g),176(v),168(g),87(v)
                                                    173(v),174(v),86(v)
     2. BD (   1)Br   1 - C   3          1.94076    -0.63653  168(g),171(v),169(g),60(v)
     3. BD (   1) C   2 - C   3          1.99413    -0.88571  177(v),113(v),169(g),30(v)
                                                    114(v)
     4. BD (   1) C   2 - C   4          1.99089    -0.83473  173(v),89(v),87(v),168(g)
     5. BD (   1) C   2 - H  10          1.97592    -0.70066  112(v),174(v),175(v),86(v)
                                                    168(g),173(v),87(v)
     6. BD (   1) C   3 - H   5          1.98373    -0.70407  171(v),169(g),62(v),61(v)
                                                    172(v),168(v)
     7. BD (   1) C   3 - H   6          1.98701    -0.70558  172(v),169(g),60(v),61(v)
                                                    31(v)
     8. BD (   1) C   4 - H   7          1.98565    -0.64291  172(v),62(v)
     9. BD (   1) C   4 - H   8          1.93717    -0.62770  168(v)
    10. BD (   1) C   4 - H   9          1.97690    -0.63685  170(v),168(v),60(v)
    11. CR (   1)Br   1                  2.00000  -471.55168   
    12. CR (   2)Br   1                  2.00000   -71.55225   
    13. CR (   3)Br   1                  1.99983   -11.60292  168(g)
    14. CR (   4)Br   1                  2.00000   -56.46455   
    15. CR (   5)Br   1                  1.99995    -6.84134   
    16. CR (   6)Br   1                  2.00000   -56.46363   
    17. CR (   7)Br   1                  1.99997    -6.83873   
    18. CR (   8)Br   1                  2.00000   -56.46157   
    19. CR (   9)Br   1                  1.99999    -6.83302   
    20. CR (  10)Br   1                  1.99978    -2.84491   
    21. CR (  11)Br   1                  1.99992    -2.83962   
    22. CR (  12)Br   1                  1.99997    -2.83721   
    23. CR (  13)Br   1                  1.99979    -2.84489   
    24. CR (  14)Br   1                  1.99991    -2.83613   
    25. CR (   1) C   2                  1.99935   -10.30146  168(g),115(v),90(v),164(v)
    26. CR (   1) C   3                  1.99925   -10.28546  169(g),62(v),68(v)
    27. CR (   1) C   4                  1.99939   -10.18484  61(v),62(v)
    28. LP (   1)Br   1                  1.99810    -1.04591  168(g),169(g)
    29. LP (   2)Br   1                  1.98035    -0.46055  173(v),174(v),171(v),172(v)
                                                    88(v)
    30. RY*(   1)Br   1                  0.00153     1.01343   
    31. RY*(   2)Br   1                  0.00134     0.87592   
    32. RY*(   3)Br   1                  0.00095     0.82934   
    33. RY*(   4)Br   1                  0.00070     1.41029   
    34. RY*(   5)Br   1                  0.00017     1.26042   
    35. RY*(   6)Br   1                  0.00012     0.80777   
    36. RY*(   7)Br   1                  0.00004     1.82855   
    37. RY*(   8)Br   1                  0.00000     1.48919   
    38. RY*(   9)Br   1                  0.00001     1.16627   
    39. RY*(  10)Br   1                  0.00001     1.12941   
    40. RY*(  11)Br   1                  0.00000     4.21034   
    41. RY*(  12)Br   1                  0.00000     1.38905   
    42. RY*(  13)Br   1                  0.00000     1.39576   
    43. RY*(  14)Br   1                  0.00000     4.07605   
    44. RY*(  15)Br   1                  0.00001     1.09954   
    45. RY*(  16)Br   1                  0.00000     1.40149   
    46. RY*(  17)Br   1                  0.00000     4.01434   
    47. RY*(  18)Br   1                  0.00000     7.28026   
    48. RY*(  19)Br   1                  0.00000     1.60651   
    49. RY*(  20)Br   1                  0.00000     3.93264   
    50. RY*(  21)Br   1                  0.00000     1.62713   
    51. RY*(  22)Br   1                  0.00000     1.50899   
    52. RY*(  23)Br   1                  0.00000     4.10650   
    53. RY*(  24)Br   1                  0.00000     1.60209   
    54. RY*(  25)Br   1                  0.00000     1.59011   
    55. RY*(  26)Br   1                  0.00000     1.63811   
    56. RY*(  27)Br   1                  0.00000     1.56211   
    57. RY*(  28)Br   1                  0.00000     1.62088   
    58. RY*(  29)Br   1                  0.00000     1.45083   
    59. RY*(  30)Br   1                  0.00001     1.44402   
    60. RY*(   1) C   2                  0.00452     0.99405   
    61. RY*(   2) C   2                  0.00334     1.27616   
    62. RY*(   3) C   2                  0.00219     1.36469   
    63. RY*(   4) C   2                  0.00158     1.28046   
    64. RY*(   5) C   2                  0.00103     1.63169   
    65. RY*(   6) C   2                  0.00047     1.90056   
    66. RY*(   7) C   2                  0.00040     1.72779   
    67. RY*(   8) C   2                  0.00019     2.36741   
    68. RY*(   9) C   2                  0.00014     1.58778   
    69. RY*(  10) C   2                  0.00006     2.23365   
    70. RY*(  11) C   2                  0.00000     3.21728   
    71. RY*(  12) C   2                  0.00000    20.88999   
    72. RY*(  13) C   2                  0.00000     2.97279   
    73. RY*(  14) C   2                  0.00000     1.40954   
    74. RY*(  15) C   2                  0.00001     2.27734   
    75. RY*(  16) C   2                  0.00000     2.33701   
    76. RY*(  17) C   2                  0.00000     1.38634   
    77. RY*(  18) C   2                  0.00001     1.52315   
    78. RY*(  19) C   2                  0.00000     2.48632   
    79. RY*(  20) C   2                  0.00000     3.82290   
    80. RY*(  21) C   2                  0.00000     3.34184   
    81. RY*(  22) C   2                  0.00000     3.40861   
    82. RY*(  23) C   2                  0.00000     3.34284   
    83. RY*(  24) C   2                  0.00000     3.61765   
    84. RY*(  25) C   2                  0.00000     3.44802   
    85. RY*(  26) C   2                  0.00000     3.45457   
    86. RY*(   1) C   3                  0.00427     0.92001   
    87. RY*(   2) C   3                  0.00329     0.90552   
    88. RY*(   3) C   3                  0.00190     1.03822   
    89. RY*(   4) C   3                  0.00104     1.60995   
    90. RY*(   5) C   3                  0.00047     1.16021   
    91. RY*(   6) C   3                  0.00027     1.69605   
    92. RY*(   7) C   3                  0.00012     1.23436   
    93. RY*(   8) C   3                  0.00008     1.60187   
    94. RY*(   9) C   3                  0.00005     1.62963   
    95. RY*(  10) C   3                  0.00001     1.20091   
    96. RY*(  11) C   3                  0.00000     3.21918   
    97. RY*(  12) C   3                  0.00000    21.32030   
    98. RY*(  13) C   3                  0.00000     2.97265   
    99. RY*(  14) C   3                  0.00001     1.42190   
   100. RY*(  15) C   3                  0.00000     3.18571   
   101. RY*(  16) C   3                  0.00000     1.24967   
   102. RY*(  17) C   3                  0.00000     3.08516   
   103. RY*(  18) C   3                  0.00000     1.35526   
   104. RY*(  19) C   3                  0.00000     3.03452   
   105. RY*(  20) C   3                  0.00000     3.51577   
   106. RY*(  21) C   3                  0.00000     3.21212   
   107. RY*(  22) C   3                  0.00000     3.36626   
   108. RY*(  23) C   3                  0.00000     3.26500   
   109. RY*(  24) C   3                  0.00000     3.27090   
   110. RY*(  25) C   3                  0.00000     3.38762   
   111. RY*(  26) C   3                  0.00000     3.23725   
   112. RY*(   1) C   4                  0.00423     1.32376   
   113. RY*(   2) C   4                  0.00130     1.18800   
   114. RY*(   3) C   4                  0.00080     1.31195   
   115. RY*(   4) C   4                  0.00035     1.06911   
   116. RY*(   5) C   4                  0.00024     1.46546   
   117. RY*(   6) C   4                  0.00015     1.55591   
   118. RY*(   7) C   4                  0.00012     1.51703   
   119. RY*(   8) C   4                  0.00003     1.71391   
   120. RY*(   9) C   4                  0.00000     1.53595   
   121. RY*(  10) C   4                  0.00000     1.94912   
   122. RY*(  11) C   4                  0.00000     3.23316   
   123. RY*(  12) C   4                  0.00001     1.95788   
   124. RY*(  13) C   4                  0.00000     3.07870   
   125. RY*(  14) C   4                  0.00000     1.32559   
   126. RY*(  15) C   4                  0.00000     2.99303   
   127. RY*(  16) C   4                  0.00000     1.38152   
   128. RY*(  17) C   4                  0.00000     2.64143   
   129. RY*(  18) C   4                  0.00000    21.23501   
   130. RY*(  19) C   4                  0.00000     3.02420   
   131. RY*(  20) C   4                  0.00000     3.47001   
   132. RY*(  21) C   4                  0.00000     3.37867   
   133. RY*(  22) C   4                  0.00000     3.26654   
   134. RY*(  23) C   4                  0.00000     3.41282   
   135. RY*(  24) C   4                  0.00000     3.35475   
   136. RY*(  25) C   4                  0.00000     3.27167   
   137. RY*(  26) C   4                  0.00000     3.64192   
   138. RY*(   1) H   5                  0.00044     1.37203   
   139. RY*(   2) H   5                  0.00015     1.36556   
   140. RY*(   3) H   5                  0.00011     2.01243   
   141. RY*(   4) H   5                  0.00005     2.43853   
   142. RY*(   5) H   5                  0.00002     2.96863   
   143. RY*(   1) H   6                  0.00065     1.20306   
   144. RY*(   2) H   6                  0.00015     1.37493   
   145. RY*(   3) H   6                  0.00010     2.20538   
   146. RY*(   4) H   6                  0.00005     2.56697   
   147. RY*(   5) H   6                  0.00002     2.82904   
   148. RY*(   1) H   7                  0.00065     1.09113   
   149. RY*(   2) H   7                  0.00011     1.64917   
   150. RY*(   3) H   7                  0.00011     2.08850   
   151. RY*(   4) H   7                  0.00006     2.32555   
   152. RY*(   5) H   7                  0.00001     3.04507   
   153. RY*(   1) H   8                  0.00043     1.39377   
   154. RY*(   2) H   8                  0.00014     1.29633   
   155. RY*(   3) H   8                  0.00010     2.11145   
   156. RY*(   4) H   8                  0.00004     2.22831   
   157. RY*(   5) H   8                  0.00002     2.96804   
   158. RY*(   1) H   9                  0.00031     1.46306   
   159. RY*(   2) H   9                  0.00013     1.29828   
   160. RY*(   3) H   9                  0.00010     2.07197   
   161. RY*(   4) H   9                  0.00005     2.30717   
   162. RY*(   5) H   9                  0.00002     3.04058   
   163. RY*(   1) H  10                  0.00052     1.01644   
   164. RY*(   2) H  10                  0.00018     1.73920   
   165. RY*(   3) H  10                  0.00014     2.53528   
   166. RY*(   4) H  10                  0.00010     2.44690   
   167. RY*(   5) H  10                  0.00004     2.87868   
   168. BD*(   1)Br   1 - C   2          0.13422    -0.04577  30(g)
   169. BD*(   1)Br   1 - C   3          0.07680    -0.00633   
   170. BD*(   1) C   2 - C   3          0.01007     0.38433   
   171. BD*(   1) C   2 - C   4          0.01088     0.40000   
   172. BD*(   1) C   2 - H  10          0.01850     0.40655   
   173. BD*(   1) C   3 - H   5          0.01107     0.38908   
   174. BD*(   1) C   3 - H   6          0.01238     0.38475   
   175. BD*(   1) C   4 - H   7          0.00586     0.40863   
   176. BD*(   1) C   4 - H   8          0.00691     0.39116   
   177. BD*(   1) C   4 - H   9          0.00509     0.41100   
       -------------------------------
              Total Lewis   57.66559  ( 99.4234%)
        Valence non-Lewis    0.29177  (  0.5030%)
        Rydberg non-Lewis    0.04264  (  0.0735%)
       -------------------------------
            Total unit  1   58.00000  (100.0000%)
           Charge unit  1    1.00000
 Unable to Open any file for archive entry.
 1\1\GINC-OLAF-C121\FOpt\RwB97XD\def2TZVP\C3H6Br1(1+)\YAROSLAV\15-Sep-2
 025\0\\# opt wB97XD/Def2TZVP scrf=(CPCM,solvent=DiChloroEthane) pop=nb
 o\\bromonium\\1,1\Br,4.3146756958,-3.2262532467,4.0643443711\C,2.26650
 42336,-3.2464159085,3.6138446996\C,3.1070857544,-2.7242258861,2.557792
 3742\C,1.4349895696,-2.3930588098,4.4876580268\H,3.3397263475,-3.35380
 45561,1.7095694027\H,3.1556992463,-1.6528203161,2.4102540053\H,1.82336
 01602,-1.3814476195,4.5811487327\H,0.4555893349,-2.3495895116,3.997226
 7987\H,1.2929191669,-2.8474233901,5.4653498728\H,2.0258304909,-4.30204
 07554,3.5603417161\\Version=ES64L-G16RevC.01\State=1-A\HF=-2691.912482
 1\RMSD=4.100e-09\RMSF=4.229e-05\Dipole=-1.2218475,0.1235549,-0.7968035
 \Quadrupole=2.5963634,-2.5716705,-0.024693,-0.6029824,0.4678171,-0.499
 807\PG=C01 [X(C3H6Br1)]\\@
 The archive entry for this job was punched.


 ORIGINALITY CONSISTS NOT IN SAYING WHAT NO ONE HAS EVER SAID BEFORE, 
 BUT IN SAYING WHAT YOU THINK YOUR SELF.

                                    -- JAMES F. STEPHEN
 Job cpu time:       0 days  1 hours 34 minutes 18.3 seconds.
 Elapsed time:       0 days  0 hours  2 minutes 57.2 seconds.
 File lengths (MBytes):  RWF=    272 Int=      0 D2E=      0 Chk=     32 Scr=     32
 Normal termination of Gaussian 16 at Mon Sep 15 09:02:49 2025.
