23
Coordinates from ORCA-job orca_input_MEP E -105.781869649719
  Br      2.440288     -1.870457      0.148182
  C       0.604045      0.004698      0.581714
  C       1.738861     -0.092980     -0.349004
  C       2.771198      0.963198     -0.150140
  O       3.140530      1.087233      1.141820
  C      -0.724723     -0.178396      0.291139
  C      -1.204009     -0.483228     -1.011083
  C      -2.544948     -0.608232     -1.224048
  C      -3.432545     -0.433762     -0.160134
  C      -2.993353     -0.143923      1.125703
  C      -1.650731     -0.026289      1.357412
  C       3.222693      1.684762     -1.165567
  H       0.870808      0.244534      1.604827
  H       1.461564     -0.163884     -1.391031
  H      -0.514442     -0.617498     -1.830247
  H      -2.924310     -0.841923     -2.207638
  H      -4.494235     -0.533569     -0.343761
  H      -3.704409     -0.024986      1.929342
  H      -1.275173      0.189463      2.348311
  H       2.856122      1.502744     -2.164110
  H       3.796128      1.784000      1.245234
  H       3.961085      2.461041     -1.015386
  Br     -1.400443     -3.902546      1.238462
23
Coordinates from ORCA-job orca_input_MEP E -105.781613753923
  Br      2.554133     -1.896560      0.174331
  C       0.621041     -0.084751      0.596939
  C       1.757631     -0.166690     -0.333063
  C       2.729324      0.948356     -0.145178
  O       3.080416      1.108194      1.147778
  C      -0.708314     -0.225919      0.297087
  C      -1.190876     -0.507595     -1.009086
  C      -2.534368     -0.571573     -1.230447
  C      -3.419311     -0.355891     -0.171633
  C      -2.976860     -0.086533      1.118017
  C      -1.632396     -0.034249      1.358875
  C       3.140477      1.683302     -1.167729
  H       0.888632      0.125966      1.625844
  H       1.480380     -0.260108     -1.373558
  H      -0.501939     -0.674198     -1.822410
  H      -2.918195     -0.787508     -2.215964
  H      -4.483576     -0.405440     -0.362393
  H      -3.686669      0.069382      1.916188
  H      -1.251571      0.168267      2.350439
  H       2.787943      1.466550     -2.164268
  H       3.685845      1.848360      1.251346
  H       3.830215      2.503526     -1.024679
  Br     -1.251963     -3.864889      1.183562
23
Coordinates from ORCA-job orca_input_MEP E -105.781079594166
  Br      2.654329     -1.910988      0.195314
  C       0.634646     -0.160991      0.609894
  C       1.773777     -0.227687     -0.318707
  C       2.690504      0.936030     -0.140563
  O       3.024886      1.126224      1.152587
  C      -0.694950     -0.263405      0.301438
  C      -1.179924     -0.525601     -1.007920
  C      -2.523620     -0.539796     -1.235751
  C      -3.404858     -0.290348     -0.181146
  C      -2.959963     -0.037679      1.111411
  C      -1.616250     -0.039289      1.359483
  C       3.068527      1.679960     -1.169196
  H       0.901326      0.023139      1.643911
  H       1.497802     -0.339565     -1.358003
  H      -0.492926     -0.720507     -1.816280
  H      -2.910787     -0.741970     -2.222556
  H      -4.469507     -0.298822     -0.377441
  H      -3.667167      0.148577      1.905159
  H      -1.231643      0.151450      2.351794
  H       2.730872      1.435377     -2.164231
  H       3.589529      1.897903      1.253767
  H       3.716351      2.533933     -1.031649
  Br     -1.130954     -3.835945      1.138684
23
Coordinates from ORCA-job orca_input_MEP E -105.780381725976
  Br      2.745383     -1.918204      0.214115
  C       0.646172     -0.230265      0.621373
  C       1.788142     -0.281862     -0.305330
  C       2.652590      0.924275     -0.136179
  O       2.970407      1.141432      1.156840
  C      -0.683220     -0.294262      0.304389
  C      -1.169818     -0.539554     -1.007464
  C      -2.512347     -0.509949     -1.240569
  C      -3.389052     -0.230399     -0.189711
  C      -2.942060      0.007783      1.105183
  C      -1.600686     -0.041526      1.359212
  C       3.001199      1.674900     -1.170021
  H       0.910580     -0.072027      1.660098
  H       1.514473     -0.410308     -1.343619
  H      -0.485712     -0.761254     -1.811185
  H      -2.902315     -0.700871     -2.228250
  H      -4.452705     -0.202830     -0.390512
  H      -3.645617      0.220301      1.895317
  H      -1.212955      0.137147      2.352471
  H       2.679279      1.406722     -2.163978
  H       3.498350      1.938872      1.254541
  H       3.610130      2.557244     -1.037022
  Br     -1.020216     -3.815365      1.100302
23
Coordinates from ORCA-job orca_input_MEP E -105.779611878566
  Br      2.829375     -1.919215      0.231606
  C       0.656252     -0.294260      0.631663
  C       1.800852     -0.330908     -0.292930
  C       2.615126      0.912743     -0.132163
  O       2.916477      1.153785      1.160611
  C      -0.672668     -0.319995      0.306619
  C      -1.160226     -0.550394     -1.007187
  C      -2.500708     -0.481595     -1.244873
  C      -3.372323     -0.174660     -0.197553
  C      -2.923533      0.050597      1.099228
  C      -1.585589     -0.041773      1.358509
  C       2.937591      1.668216     -1.170428
  H       0.917660     -0.161116      1.674542
  H       1.530281     -0.474812     -1.330256
  H      -0.479815     -0.797617     -1.806511
  H      -2.892965     -0.663163     -2.233224
  H      -4.433988     -0.114811     -0.402213
  H      -3.622753      0.286402      1.886307
  H      -1.195403      0.124705      2.352881
  H       2.631762      1.379783     -2.163637
  H       3.410282      1.973133      1.254358
  H       3.510139      2.574828     -1.041279
  Br     -0.915825     -3.799874      1.065928
23
Coordinates from ORCA-job orca_input_MEP E -105.778834058356
  Br      2.906339     -1.915416      0.248241
  C       0.664040     -0.353441      0.640242
  C       1.811598     -0.375957     -0.281273
  C       2.577755      0.899950     -0.129260
  O       2.864690      1.163573      1.164558
  C      -0.660941     -0.342339      0.309795
  C      -1.151202     -0.558462     -1.005953
  C      -2.488907     -0.454731     -1.248026
  C      -3.356119     -0.122340     -0.204473
  C      -2.904826      0.090390      1.092577
  C      -1.570914     -0.040986      1.357415
  C       2.876966      1.659648     -1.170685
  H       0.922566     -0.244315      1.687690
  H       1.545847     -0.533729     -1.316809
  H      -0.474424     -0.830126     -1.802459
  H      -2.883231     -0.628554     -2.238377
  H      -4.413426     -0.033730     -0.412932
  H      -3.599985      0.347469      1.878362
  H      -1.179574      0.113030      2.353487
  H       2.587427      1.354072     -2.163848
  H       3.326310      2.002755      1.253161
  H       3.416588      2.589091     -1.045004
  Br     -0.816577     -3.785854      1.033571
23
Coordinates from ORCA-job orca_input_MEP E -105.778615092025
  Br      2.927236     -1.913350      0.253026
  C       0.666099     -0.370048      0.642784
  C       1.814483     -0.388273     -0.277942
  C       2.567001      0.896491     -0.128233
  O       2.849311      1.165718      1.165487
  C      -0.658214     -0.348085      0.310287
  C      -1.148597     -0.560487     -1.005798
  C      -2.485384     -0.447183     -1.249091
  C      -3.350951     -0.107872     -0.206405
  C      -2.899271      0.101682      1.090890
  C      -1.566680     -0.040425      1.357139
  C       2.859883      1.656913     -1.170744
  H       0.923444     -0.267707      1.691214
  H       1.550064     -0.549896     -1.313241
  H      -0.473182     -0.838868     -1.801154
  H      -2.880162     -0.618973     -2.239540
  H      -4.407368     -0.011423     -0.415824
  H      -3.592937      0.364394      1.876123
  H      -1.175039      0.110147      2.353528
  H       2.575099      1.346770     -2.163787
  H       3.302329      2.009857      1.252800
  H       3.390175      2.591852     -1.045896
  Br     -0.787342     -3.781233      1.024376
23
Coordinates from ORCA-job orca_input_MEP E -105.778402015361
  Br      2.948068     -1.911192      0.257790
  C       0.668146     -0.386669      0.645338
  C       1.817451     -0.400551     -0.274577
  C       2.556238      0.892999     -0.127211
  O       2.833962      1.167923      1.166401
  C      -0.655513     -0.353810      0.310801
  C      -1.146022     -0.562511     -1.005649
  C      -2.481822     -0.439635     -1.250122
  C      -3.345780     -0.093407     -0.208350
  C      -2.893661      0.112966      1.089205
  C      -1.562473     -0.039859      1.356830
  C       2.842809      1.654190     -1.170800
  H       0.924303     -0.291101      1.694709
  H       1.554295     -0.566060     -1.309665
  H      -0.471970     -0.847600     -1.799830
  H      -2.877087     -0.609393     -2.240702
  H      -4.401260      0.010879     -0.418710
  H      -3.585864      0.381312      1.873871
  H      -1.170513      0.107264      2.353564
  H       2.562786      1.339485     -2.163700
  H       3.278291      2.016855      1.252417
  H       3.363718      2.594537     -1.046796
  Br     -0.758103     -3.776621      1.015186
23
Coordinates from ORCA-job orca_input_MEP E -105.778195680016
  Br      2.968843     -1.908933      0.262529
  C       0.670173     -0.403318      0.647911
  C       1.820495     -0.412785     -0.271179
  C       2.545454      0.889469     -0.126189
  O       2.818627      1.170187      1.167300
  C      -0.652840     -0.359516      0.311334
  C      -1.143470     -0.564529     -1.005508
  C      -2.478219     -0.432081     -1.251120
  C      -3.340601     -0.078939     -0.210308
  C      -2.887991      0.124248      1.087521
  C      -1.558291     -0.039285      1.356487
  C       2.825736      1.651473     -1.170849
  H       0.925137     -0.314508      1.698170
  H       1.558542     -0.582224     -1.306080
  H      -0.470789     -0.856319     -1.798485
  H      -2.874002     -0.599809     -2.241863
  H      -4.395096      0.033180     -0.421590
  H      -3.578759      0.398226      1.871607
  H      -1.165995      0.104383      2.353593
  H       2.550483      1.332214     -2.163588
  H       3.254186      2.023732      1.252011
  H       3.337206      2.597134     -1.047703
  Br     -0.728830     -3.772002      1.006000
23
Coordinates from ORCA-job orca_input_MEP E -105.777992211233
  Br      2.989754     -1.906008      0.267367
  C       0.672122     -0.420398      0.650470
  C       1.823381     -0.425169     -0.267739
  C       2.534129      0.885759     -0.125116
  O       2.802432      1.172148      1.168236
  C      -0.650201     -0.365134      0.311797
  C      -1.140823     -0.566368     -1.005360
  C      -2.474458     -0.424290     -1.252164
  C      -3.335093     -0.064169     -0.212298
  C      -2.882039      0.135836      1.085761
  C      -1.553900     -0.038521      1.356100
  C       2.808165      1.648413     -1.170862
  H       0.925690     -0.338619      1.701608
  H       1.562893     -0.598503     -1.302447
  H      -0.469668     -0.865005     -1.797113
  H      -2.870698     -0.590058     -2.243019
  H      -4.388534      0.055792     -0.424492
  H      -3.571190      0.415410      1.869308
  H      -1.161370      0.101580      2.353571
  H       2.537929      1.324695     -2.163461
  H       3.229434      2.030185      1.251577
  H       3.310070      2.599307     -1.048532
  Br     -0.698026     -3.766882      0.996808
23
Coordinates from ORCA-job orca_input_MEP E -105.777796206187
  Br      3.009994     -1.902808      0.272076
  C       0.673956     -0.437143      0.652944
  C       1.826121     -0.437194     -0.264376
  C       2.522908      0.882064     -0.124051
  O       2.786359      1.173907      1.169154
  C      -0.647678     -0.370509      0.312219
  C      -1.138222     -0.568051     -1.005217
  C      -2.470729     -0.416643     -1.253182
  C      -3.329602     -0.049747     -0.214241
  C      -2.876124      0.147183      1.084021
  C      -1.549564     -0.037685      1.355691
  C       2.790944      1.645287     -1.170856
  H       0.926074     -0.362264      1.704903
  H       1.567156     -0.614289     -1.298911
  H      -0.468627     -0.873371     -1.795763
  H      -2.867395     -0.580552     -2.244132
  H      -4.381980      0.077792     -0.427306
  H      -3.563638      0.432144      1.867067
  H      -1.156853      0.098911      2.353518
  H       2.525681      1.317312     -2.163321
  H       3.205178      2.036171      1.251136
  H       3.283522      2.601161     -1.049300
  Br     -0.667483     -3.761675      0.987926
23
Coordinates from ORCA-job orca_input_MEP E -105.777612890163
  Br      3.029992     -1.899530      0.276719
  C       0.675747     -0.453824      0.655424
  C       1.828915     -0.449072     -0.261009
  C       2.511754      0.878353     -0.122992
  O       2.770416      1.175692      1.170054
  C      -0.645212     -0.375806      0.312653
  C      -1.135663     -0.569707     -1.005081
  C      -2.466995     -0.409054     -1.254161
  C      -3.324149     -0.035443     -0.216180
  C      -2.870202      0.158430      1.082293
  C      -1.545281     -0.036840      1.355252
  C       2.773867      1.642188     -1.170845
  H       0.926431     -0.385737      1.708134
  H       1.571400     -0.629941     -1.295394
  H      -0.467630     -0.881654     -1.794402
  H      -2.864110     -0.571126     -2.245236
  H      -4.375426      0.099603     -0.430090
  H      -3.556115      0.448735      1.864833
  H      -1.152382      0.096273      2.353457
  H       2.513543      1.310000     -2.163156
  H       3.181066      2.041994      1.250675
  H       3.257147      2.602909     -1.050066
  Br     -0.637113     -3.756444      0.979116
23
Coordinates from ORCA-job orca_input_MEP E -105.777439581519
  Br      3.049608     -1.895911      0.281220
  C       0.677424     -0.470642      0.657857
  C       1.831534     -0.460850     -0.257667
  C       2.500444      0.874551     -0.121892
  O       2.754231      1.177229      1.170992
  C      -0.642858     -0.380878      0.313034
  C      -1.133132     -0.571176     -1.004935
  C      -2.463259     -0.401474     -1.255127
  C      -3.318652     -0.021284     -0.218109
  C      -2.864240      0.169624      1.080548
  C      -1.540984     -0.035827      1.354760
  C       2.756854      1.638880     -1.170764
  H       0.926583     -0.409354      1.711265
  H       1.575619     -0.645318     -1.291931
  H      -0.466740     -0.889735     -1.793024
  H      -2.860772     -0.561826     -2.246308
  H      -4.368805      0.121077     -0.432828
  H      -3.548482      0.465107      1.862618
  H      -1.147967      0.093811      2.353345
  H       2.501535      1.302660     -2.162951
  H       3.157060      2.047341      1.250198
  H       3.230968      2.604261     -1.050738
  Br     -0.605969     -3.750268      0.970439
23
Coordinates from ORCA-job orca_input_MEP E -105.777279228660
  Br      3.068793     -1.891948      0.285569
  C       0.678978     -0.487593      0.660233
  C       1.833951     -0.472510     -0.254363
  C       2.488989      0.870660     -0.120750
  O       2.737818      1.178484      1.171971
  C      -0.640631     -0.385695      0.313350
  C      -1.130627     -0.572447     -1.004774
  C      -2.459538     -0.393917     -1.256081
  C      -3.313117     -0.007303     -0.220025
  C      -2.858253      0.180746      1.078787
  C      -1.536671     -0.034639      1.354212
  C       2.739939      1.635354     -1.170612
  H       0.926525     -0.433079      1.714287
  H       1.579799     -0.660374     -1.288529
  H      -0.465962     -0.897588     -1.791629
  H      -2.857388     -0.552676     -2.247344
  H      -4.362132      0.142158     -0.435513
  H      -3.540752      0.481221      1.860427
  H      -1.143617      0.091537      2.353174
  H       2.489685      1.295298     -2.162709
  H       3.133221      2.052199      1.249707
  H       3.205052      2.605209     -1.051306
  Br     -0.574063     -3.743097      0.961918
23
Coordinates from ORCA-job orca_input_MEP E -105.777141206150
  Br      3.087891     -1.887895      0.289888
  C       0.680513     -0.504675      0.662634
  C       1.836446     -0.484107     -0.251028
  C       2.477524      0.866722     -0.119604
  O       2.721413      1.179765      1.172937
  C      -0.638451     -0.390464      0.313680
  C      -1.128134     -0.573712     -1.004606
  C      -2.455796     -0.386358     -1.257005
  C      -3.307585      0.006667     -0.221953
  C      -2.852230      0.191851      1.077023
  C      -1.532367     -0.033433      1.353628
  C       2.723036      1.631837     -1.170457
  H       0.926448     -0.456803      1.717275
  H       1.583994     -0.675422     -1.285124
  H      -0.465216     -0.905426     -1.790220
  H      -2.853999     -0.543532     -2.248379
  H      -4.355422      0.163223     -0.438193
  H      -3.533001      0.497319      1.858228
  H      -1.139279      0.089274      2.353001
  H       2.477851      1.287953     -2.162442
  H       3.109351      2.056969      1.249196
  H       3.179110      2.606076     -1.051879
  Br     -0.542097     -3.735829      0.953399
23
Coordinates from ORCA-job orca_input_MEP E -105.777025520114
  Br      3.106670     -1.883559      0.294008
  C       0.681905     -0.522118      0.664969
  C       1.838781     -0.495650     -0.247735
  C       2.465970      0.862674     -0.118403
  O       2.704938      1.180787      1.173945
  C      -0.636412     -0.395013      0.313949
  C      -1.125728     -0.574825     -1.004417
  C      -2.452120     -0.378843     -1.257905
  C      -3.302115      0.020428     -0.223874
  C      -2.846230      0.202836      1.075236
  C      -1.528089     -0.032057      1.352964
  C       2.706285      1.628132     -1.170194
  H       0.926193     -0.480706      1.720132
  H       1.588168     -0.690182     -1.281803
  H      -0.464610     -0.913063     -1.788784
  H      -2.850621     -0.534532     -2.249390
  H      -4.348764      0.183864     -0.440820
  H      -3.525236      0.513106      1.856049
  H      -1.135022      0.087185      2.352749
  H       2.466190      1.280640     -2.162117
  H       3.085691      2.061283      1.248673
  H       3.153507      2.606580     -1.052313
  Br     -0.509352     -3.726969      0.945083
23
Coordinates from ORCA-job orca_input_MEP E -105.776938094060
  Br      3.124999     -1.878880      0.297852
  C       0.683107     -0.539997      0.667188
  C       1.840849     -0.507118     -0.244525
  C       2.454317      0.858492     -0.117136
  O       2.688394      1.181419      1.175019
  C      -0.634568     -0.399256      0.314124
  C      -1.123427     -0.575721     -1.004199
  C      -2.448560     -0.371404     -1.258785
  C      -3.296744      0.033863     -0.225777
  C      -2.840298      0.213637      1.073420
  C      -1.523838     -0.030446      1.352204
  C       2.689778      1.624169     -1.169783
  H       0.925690     -0.504802      1.722816
  H       1.592295     -0.704509     -1.278610
  H      -0.464189     -0.920409     -1.787326
  H      -2.847267     -0.525752     -2.250360
  H      -4.342214      0.203873     -0.443371
  H      -3.517478      0.528427      1.853908
  H      -1.130887      0.085344      2.352397
  H       2.454794      1.273379     -2.161725
  H       3.062405      2.065002      1.248143
  H       3.128449      2.606607     -1.052547
  Br     -0.475607     -3.715918      0.937072
23
Coordinates from ORCA-job orca_input_MEP E -105.776892453209
  Br      3.143229     -1.874116      0.301667
  C       0.684303     -0.558035      0.669430
  C       1.842989     -0.518498     -0.241286
  C       2.442677      0.854267     -0.115860
  O       2.671884      1.182080      1.176070
  C      -0.632795     -0.403437      0.314310
  C      -1.121123     -0.576623     -1.003955
  C      -2.444995     -0.363973     -1.259634
  C      -3.291384      0.047277     -0.227691
  C      -2.834352      0.224409      1.071598
  C      -1.519569     -0.028831      1.351399
  C       2.673304      1.620229     -1.169374
  H       0.925177     -0.528850      1.725465
  H       1.596431     -0.718817     -1.275414
  H      -0.463795     -0.927732     -1.785855
  H      -2.843916     -0.516983     -2.251332
  H      -4.335644      0.223850     -0.445916
  H      -3.509717      0.543719      1.851765
  H      -1.126764      0.083510      2.352043
  H       2.443424      1.266144     -2.161312
  H       3.039119      2.068644      1.247597
  H       3.103399      2.606573     -1.052788
  Br     -0.441880     -3.704808      0.929073
23
Coordinates from ORCA-job orca_input_MEP E -105.776895461594
  Br      3.161335     -1.869131      0.305124
  C       0.685261     -0.576879      0.671606
  C       1.844936     -0.529981     -0.238079
  C       2.430915      0.849806     -0.114481
  O       2.655407      1.182385      1.177192
  C      -0.631267     -0.407316      0.314411
  C      -1.118986     -0.577310     -1.003688
  C      -2.441627     -0.356572     -1.260449
  C      -3.286265      0.060416     -0.229622
  C      -2.828570      0.235027      1.069726
  C      -1.515404     -0.026970      1.350459
  C       2.657056      1.616065     -1.168817
  H       0.924421     -0.553283      1.727993
  H       1.600486     -0.732912     -1.272318
  H      -0.463589     -0.934780     -1.784336
  H      -2.840669     -0.508379     -2.252289
  H      -4.329340      0.243265     -0.448409
  H      -3.502099      0.558595      1.849636
  H      -1.122793      0.081887      2.351564
  H       2.432281      1.258933     -2.160800
  H       3.016227      2.071729      1.247059
  H       3.078891      2.606084     -1.052804
  Br     -0.406608     -3.690681      0.921324
23
Coordinates from ORCA-job orca_input_MEP E -105.776968304776
  Br      3.178743     -1.863977      0.307866
  C       0.685779     -0.596550      0.673583
  C       1.846427     -0.541364     -0.235044
  C       2.419293      0.845101     -0.112952
  O       2.639463      1.182030      1.178412
  C      -0.630185     -0.410550      0.314344
  C      -1.117200     -0.577602     -1.003390
  C      -2.438720     -0.349448     -1.261220
  C      -3.281719      0.072693     -0.231517
  C      -2.823278      0.245082      1.067829
  C      -1.511532     -0.024738      1.349337
  C       2.641676      1.611605     -1.168016
  H       0.923267     -0.577681      1.730262
  H       1.604267     -0.746223     -1.269496
  H      -0.463698     -0.941144     -1.782788
  H      -2.837703     -0.500312     -2.253187
  H      -4.323728      0.261131     -0.450744
  H      -3.494971      0.572314      1.847602
  H      -1.119196      0.080688      2.350882
  H       2.421858      1.251958     -2.160148
  H       2.994728      2.073801      1.246561
  H       3.056081      2.604860     -1.052418
  Br     -0.369651     -3.671673      0.914244
23
Coordinates from ORCA-job orca_input_MEP E -105.777133589081
  Br      3.195776     -1.858874      0.310417
  C       0.686173     -0.616783      0.675547
  C       1.847869     -0.552609     -0.232014
  C       2.407781      0.840299     -0.111370
  O       2.623804      1.181573      1.179634
  C      -0.629338     -0.413597      0.314249
  C      -1.115505     -0.577854     -1.003006
  C      -2.435983     -0.342429     -1.261932
  C      -3.277386      0.084683     -0.233399
  C      -2.818158      0.254914      1.065892
  C      -1.507716     -0.022449      1.348119
  C       2.626619      1.607141     -1.167166
  H       0.922052     -0.601861      1.732450
  H       1.607995     -0.759294     -1.266739
  H      -0.463910     -0.947325     -1.781209
  H      -2.834836     -0.492411     -2.254069
  H      -4.318340      0.278526     -0.453031
  H      -3.488023      0.585674      1.845595
  H      -1.115718      0.079574      2.350142
  H       2.411685      1.245109     -2.159449
  H       2.973711      2.075632      1.246044
  H       3.033804      2.603461     -1.051951
  Br     -0.332359     -3.651102      0.907245
23
Coordinates from ORCA-job orca_input_MEP E -105.777445172396
  Br      3.211350     -1.854368      0.312076
  C       0.685881     -0.638755      0.677311
  C       1.848741     -0.563679     -0.229185
  C       2.396783      0.835260     -0.109487
  O       2.609479      1.180523      1.180954
  C      -0.629156     -0.416088      0.313995
  C      -1.114396     -0.577817     -1.002458
  C      -2.434056     -0.335950     -1.262535
  C      -3.274107      0.095274     -0.235173
  C      -2.813910      0.263743      1.063874
  C      -1.504437     -0.019822      1.346677
  C       2.613084      1.602515     -1.166038
  H       0.920548     -0.625260      1.734379
  H       1.611401     -0.771192     -1.264314
  H      -0.464547     -0.952666     -1.779519
  H      -2.832467     -0.485324     -2.254852
  H      -4.314193      0.293613     -0.455089
  H      -3.481994      0.597294      1.843725
  H      -1.112805      0.078877      2.349109
  H       2.402711      1.238806     -2.158572
  H       2.955153      2.076455      1.245480
  H       3.014243      2.601343     -1.051029
  Br     -0.293305     -3.622782      0.900672
23
Coordinates from ORCA-job orca_input_MEP E -105.777946231457
  Br      3.228017     -1.849450      0.313825
  C       0.685522     -0.663462      0.679325
  C       1.849758     -0.575449     -0.226079
  C       2.384905      0.829679     -0.107474
  O       2.594044      1.179375      1.182376
  C      -0.629270     -0.418609      0.313702
  C      -1.113152     -0.577780     -1.001713
  C      -2.432065     -0.328938     -1.263109
  C      -3.270641      0.106685     -0.237103
  C      -2.809391      0.273224      1.061598
  C      -1.500760     -0.016979      1.344973
  C       2.598510      1.597515     -1.164787
  H       0.918917     -0.650431      1.736420
  H       1.615096     -0.784024     -1.261697
  H      -0.465274     -0.958404     -1.777678
  H      -2.829927     -0.477688     -2.255712
  H      -4.309724      0.309841     -0.457304
  H      -3.475511      0.609796      1.841715
  H      -1.109675      0.078151      2.347985
  H       2.393054      1.232013     -2.157609
  H       2.935164      2.077273      1.244856
  H       2.993181      2.599005     -1.050021
  Br     -0.250778     -3.591343      0.893513
23
Coordinates from ORCA-job orca_input_MEP E -105.780364721167
  Br      3.260086     -1.840335      0.315554
  C       0.681674     -0.727291      0.683638
  C       1.852163     -0.597294     -0.220748
  C       2.361048      0.818444     -0.102175
  O       2.564699      1.176389      1.184194
  C      -0.631980     -0.423435      0.312139
  C      -1.111909     -0.578618     -0.998692
  C      -2.431167     -0.315588     -1.262590
  C      -3.266737      0.126669     -0.241248
  C      -2.802289      0.290165      1.055485
  C      -1.493705     -0.010600      1.339563
  C       2.572035      1.586742     -1.159624
  H       0.916220     -0.697888      1.740464
  H       1.622213     -0.807630     -1.257449
  H      -0.467522     -0.970317     -1.773470
  H      -2.825674     -0.464064     -2.257181
  H      -4.301876      0.337948     -0.460758
  H      -3.463376      0.631666      1.838185
  H      -1.102799      0.077860      2.345542
  H       2.376151      1.220038     -2.155195
  H       2.899401      2.076875      1.243808
  H       2.956150      2.592795     -1.047135
  Br     -0.162805     -3.502532      0.877692
23
Coordinates from ORCA-job orca_input_MEP E -105.792369335091
  Br      3.304420     -1.829624      0.311160
  C       0.670128     -0.866790      0.693007
  C       1.848500     -0.630788     -0.210356
  C       2.328660      0.798649     -0.093691
  O       2.531638      1.170421      1.189613
  C      -0.640482     -0.431100      0.311314
  C      -1.114143     -0.579101     -0.991936
  C      -2.433465     -0.298652     -1.262009
  C      -3.267938      0.148788     -0.246371
  C      -2.797127      0.309426      1.046288
  C      -1.485095      0.001804      1.329978
  C       2.542350      1.570589     -1.151798
  H       0.912134     -0.752492      1.743028
  H       1.632290     -0.836329     -1.251188
  H      -0.473242     -0.981659     -1.766142
  H      -2.822572     -0.447798     -2.259289
  H      -4.300156      0.366836     -0.465352
  H      -3.452623      0.653488      1.833715
  H      -1.097574      0.078595      2.339581
  H       2.358429      1.205739     -2.150816
  H       2.862597      2.073508      1.240415
  H       2.917788      2.582019     -1.040924
  Br     -0.024515     -3.305528      0.851773
23
Coordinates from ORCA-job orca_input_MEP E -105.825532237076
  Br      3.420820     -1.770966      0.327419
  C       0.673902     -1.088697      0.707010
  C       1.848034     -0.699960     -0.181804
  C       2.231851      0.750557     -0.074593
  O       2.402351      1.156665      1.204487
  C      -0.630085     -0.484491      0.317412
  C      -1.111819     -0.605625     -0.979681
  C      -2.414095     -0.249277     -1.264532
  C      -3.235629      0.238680     -0.259691
  C      -2.750646      0.380333      1.028097
  C      -1.447547      0.016110      1.316699
  C       2.423884      1.527062     -1.134860
  H       0.912978     -0.867216      1.741342
  H       1.671604     -0.931003     -1.225273
  H      -0.488236     -1.040591     -1.751524
  H      -2.796631     -0.382554     -2.267073
  H      -4.257371      0.499256     -0.481209
  H      -3.388652      0.750078      1.818635
  H      -1.065740      0.075002      2.330094
  H       2.280978      1.151250     -2.136475
  H       2.700686      2.071991      1.231361
  H       2.747916      2.555969     -1.025842
  Br      0.271448     -3.052574      0.760001
23
Coordinates from ORCA-job orca_input_MEP E -105.829055593513
  Br      3.493709     -1.703915      0.370900
  C       0.696286     -1.159018      0.710380
  C       1.863165     -0.733172     -0.164789
  C       2.159278      0.731874     -0.068570
  O       2.281917      1.156056      1.209871
  C      -0.610153     -0.542805      0.324497
  C      -1.097683     -0.642589     -0.972822
  C      -2.376617     -0.212383     -1.266942
  C      -3.175612      0.325966     -0.269321
  C      -2.687516      0.443087      1.019365
  C      -1.405668      0.008839      1.315205
  C       2.309122      1.507536     -1.134108
  H       0.923268     -0.949855      1.750661
  H       1.711893     -0.996914     -1.203720
  H      -0.494595     -1.106055     -1.743919
  H      -2.758635     -0.321350     -2.272942
  H      -4.180865      0.643961     -0.496955
  H      -3.306860      0.852393      1.805577
  H      -1.025641      0.063754      2.328724
  H       2.199757      1.105446     -2.129703
  H       2.524883      2.086994      1.231265
  H       2.561836      2.555440     -1.029237
  Br      0.394733     -3.113291      0.686582
23
Coordinates from ORCA-job orca_input_MEP E -105.830474482875
  Br      3.535382     -1.652423      0.411801
  C       0.710377     -1.211066      0.710921
  C       1.873354     -0.752682     -0.152039
  C       2.105040      0.722542     -0.064978
  O       2.195169      1.158273      1.212363
  C      -0.596667     -0.589200      0.330087
  C      -1.085895     -0.673303     -0.967815
  C      -2.343473     -0.187436     -1.268131
  C      -3.121944      0.389568     -0.275785
  C      -2.633536      0.487437      1.014174
  C      -1.372225     -0.001174      1.315922
  C       2.222106      1.495631     -1.135762
  H       0.929607     -1.017453      1.756034
  H       1.743821     -1.035431     -1.189004
  H      -0.497944     -1.156491     -1.738277
  H      -2.724763     -0.277714     -2.276116
  H      -4.110586      0.754405     -0.509066
  H      -3.236452      0.928767      1.795774
  H      -0.992372      0.051096      2.329160
  H       2.137743      1.076629     -2.126643
  H       2.387246      2.100803      1.231387
  H       2.416490      2.556083     -1.038925
  Br      0.459520     -3.166863      0.634916
23
Coordinates from ORCA-job orca_input_MEP E -105.831321205318
  Br      3.565940     -1.605779      0.449349
  C       0.721795     -1.255268      0.710926
  C       1.881155     -0.767664     -0.139892
  C       2.057567      0.714516     -0.061372
  O       2.120623      1.159939      1.214718
  C      -0.585107     -0.629103      0.334892
  C      -1.075761     -0.700396     -0.963212
  C      -2.312584     -0.166891     -1.269179
  C      -3.070863      0.444886     -0.281601
  C      -2.583108      0.525311      1.010017
  C      -1.341979     -0.010505      1.316600
  C       2.143686      1.484414     -1.137324
  H       0.934080     -1.078863      1.760397
  H       1.772893     -1.063786     -1.175557
  H      -0.502130     -1.200930     -1.733058
  H      -2.692791     -0.240458     -2.279240
  H      -4.042678      0.851381     -0.520105
  H      -3.170091      0.995440      1.787402
  H      -0.962211      0.038730      2.329523
  H       2.081271      1.051686     -2.124293
  H       2.262779      2.111352      1.230838
  H       2.285832      2.554219     -1.049068
  Br      0.511682     -3.212230      0.589239
23
Coordinates from ORCA-job orca_input_MEP E -105.831802850767
  Br      3.591318     -1.560502      0.484553
  C       0.731887     -1.294382      0.710957
  C       1.888053     -0.779858     -0.127328
  C       2.012330      0.706958     -0.057195
  O       2.052182      1.161072      1.217126
  C      -0.575300     -0.666419      0.339437
  C      -1.066746     -0.725727     -0.958843
  C      -2.282340     -0.148044     -1.270268
  C      -3.019964      0.496382     -0.287243
  C      -2.533229      0.560686      1.006044
  C      -1.312987     -0.019056      1.317031
  C       2.068448      1.472363     -1.138327
  H       0.937294     -1.137882      1.764200
  H       1.800145     -1.086250     -1.162025
  H      -0.507703     -1.242613     -1.727809
  H      -2.661145     -0.206234     -2.282197
  H      -3.974303      0.942389     -0.531071
  H      -3.104115      1.057794      1.779196
  H      -0.933703      0.026906      2.329617
  H       2.026023      1.027437     -2.121266
  H       2.143186      2.118880      1.229937
  H       2.160155      2.548910     -1.059409
  Br      0.560516     -3.252811      0.544884
23
Coordinates from ORCA-job orca_input_MEP E -105.831976103626
  Br      3.612749     -1.515669      0.519097
  C       0.740897     -1.334890      0.711301
  C       1.895455     -0.788292     -0.113733
  C       1.968364      0.701858     -0.052035
  O       1.986190      1.162863      1.219954
  C      -0.566770     -0.700616      0.343062
  C      -1.059549     -0.749520     -0.955456
  C      -2.252919     -0.129566     -1.271468
  C      -2.968294      0.545630     -0.292926
  C      -2.483419      0.594629      1.001740
  C      -1.285680     -0.026932      1.317713
  C       1.994115      1.459312     -1.139385
  H       0.938854     -1.195126      1.767924
  H       1.826852     -1.104185     -1.148234
  H      -0.514892     -1.282898     -1.723310
  H      -2.628924     -0.173816     -2.284597
  H      -3.903383      1.029412     -0.541108
  H      -3.036736      1.116890      1.770448
  H      -0.905506      0.014991      2.329846
  H       1.970735      1.002527     -2.116872
  H       2.027838      2.123835      1.228099
  H       2.035969      2.538437     -1.070268
  Br      0.608055     -3.288875      0.500209
