23
Coordinates from ORCA-job orca_input E -105.776925943696
  Br      3.143229     -1.874116      0.301667
  C       0.684303     -0.558035      0.669430
  C       1.842989     -0.518498     -0.241286
  C       2.442677      0.854267     -0.115860
  O       2.671884      1.182080      1.176070
  C      -0.632795     -0.403437      0.314310
  C      -1.121123     -0.576623     -1.003955
  C      -2.444995     -0.363973     -1.259634
  C      -3.291384      0.047277     -0.227691
  C      -2.834352      0.224409      1.071598
  C      -1.519569     -0.028831      1.351399
  C       2.673304      1.620229     -1.169374
  H       0.925177     -0.528850      1.725465
  H       1.596431     -0.718817     -1.275414
  H      -0.463795     -0.927732     -1.785855
  H      -2.843916     -0.516983     -2.251332
  H      -4.335644      0.223850     -0.445916
  H      -3.509717      0.543719      1.851765
  H      -1.126764      0.083510      2.352043
  H       2.443424      1.266144     -2.161312
  H       3.039119      2.068644      1.247597
  H       3.103399      2.606573     -1.052788
  Br     -0.441880     -3.704808      0.929073
23
Coordinates from ORCA-job orca_input E -105.777254604468
  Br      3.143304     -1.872046      0.319743
  C       0.682102     -0.555366      0.678593
  C       1.842342     -0.520351     -0.231101
  C       2.443384      0.853085     -0.118668
  O       2.686648      1.188874      1.168495
  C      -0.634220     -0.397888      0.319976
  C      -1.115665     -0.559242     -1.002138
  C      -2.438722     -0.347232     -1.262775
  C      -3.291905      0.049701     -0.230989
  C      -2.842214      0.213913      1.072660
  C      -1.527589     -0.036879      1.356480
  C       2.665917      1.611478     -1.179535
  H       0.920580     -0.531865      1.735226
  H       1.596191     -0.728477     -1.263757
  H      -0.453009     -0.898767     -1.784433
  H      -2.831814     -0.490641     -2.258245
  H      -4.335862      0.224476     -0.452726
  H      -3.523230      0.520833      1.852804
  H      -1.141274      0.063594      2.360937
  H       2.426445      1.250876     -2.167037
  H       3.057281      2.074836      1.229846
  H       3.097200      2.598438     -1.073609
  Br     -0.425892     -3.711351      0.930253
23
Coordinates from ORCA-job orca_input E -105.777554290344
  Br      3.142560     -1.870143      0.338515
  C       0.680468     -0.551287      0.688028
  C       1.841901     -0.521950     -0.221133
  C       2.445504      0.851102     -0.122688
  O       2.696801      1.197647      1.159727
  C      -0.635019     -0.391392      0.326335
  C      -1.109147     -0.537840     -1.000107
  C      -2.431727     -0.328540     -1.265409
  C      -3.292680      0.049035     -0.232976
  C      -2.850680      0.198624      1.075230
  C      -1.535772     -0.047152      1.362653
  C       2.661894      1.600332     -1.191525
  H       0.916898     -0.529887      1.745227
  H       1.595761     -0.738367     -1.252028
  H      -0.440499     -0.862034     -1.783355
  H      -2.818410     -0.459804     -2.265069
  H      -4.336650      0.220205     -0.457945
  H      -3.538302      0.489193      1.855793
  H      -1.155948      0.042572      2.370652
  H       2.415560      1.231378     -2.174400
  H       3.069703      2.083343      1.210340
  H       3.096537      2.586956     -1.097224
  Br     -0.418754     -3.711990      0.931359
23
Coordinates from ORCA-job orca_input E -105.777953825724
  Br      3.139541     -1.864819      0.368623
  C       0.677202     -0.541716      0.702710
  C       1.840322     -0.521454     -0.205773
  C       2.449053      0.850171     -0.129472
  O       2.711632      1.214161      1.145334
  C      -0.637224     -0.380837      0.337038
  C      -1.100474     -0.504349     -0.995736
  C      -2.422477     -0.300275     -1.268006
  C      -3.295470      0.045294     -0.234704
  C      -2.865209      0.171659      1.080181
  C      -1.549425     -0.063271      1.372701
  C       2.663846      1.581254     -1.211472
  H       0.910445     -0.526454      1.760765
  H       1.594158     -0.751338     -1.233625
  H      -0.422580     -0.803148     -1.780815
  H      -2.799302     -0.411976     -2.273798
  H      -4.339754      0.209021     -0.464346
  H      -3.562742      0.437399      1.860735
  H      -1.179649      0.009638      2.385877
  H       2.410278      1.197562     -2.187054
  H       3.091193      2.097872      1.178786
  H       3.099820      2.568810     -1.135304
  Br     -0.413183     -3.713205      0.927355
23
Coordinates from ORCA-job orca_input E -105.778168890807
  Br      3.134995     -1.862491      0.388149
  C       0.675223     -0.533138      0.711433
  C       1.839316     -0.519940     -0.196608
  C       2.453620      0.849545     -0.134424
  O       2.719192      1.225932      1.135898
  C      -0.638392     -0.372387      0.343595
  C      -1.095167     -0.481602     -0.992740
  C      -2.417194     -0.282878     -1.268786
  C      -3.297775      0.040358     -0.234785
  C      -2.874417      0.152693      1.083826
  C      -1.557865     -0.073804      1.379050
  C       2.667462      1.569193     -1.224456
  H       0.906567     -0.519595      1.769972
  H       1.592725     -0.758591     -1.222286
  H      -0.411451     -0.763169     -1.778757
  H      -2.788210     -0.382705     -2.277980
  H      -4.342396      0.198516     -0.467096
  H      -3.578404      0.400114      1.864579
  H      -1.193930     -0.010859      2.395051
  H       2.410150      1.176034     -2.195374
  H       3.102096      2.108569      1.158990
  H       3.109866      2.554704     -1.160148
  Br     -0.416010     -3.714501      0.922896
23
Coordinates from ORCA-job orca_input E -105.778420353357
  Br      3.127962     -1.855621      0.416793
  C       0.671919     -0.519101      0.722963
  C       1.837226     -0.515003     -0.184329
  C       2.459172      0.851206     -0.141861
  O       2.730418      1.243999      1.122028
  C      -0.640768     -0.360907      0.352717
  C      -1.089004     -0.450205     -0.987960
  C      -2.411209     -0.259786     -1.268802
  C      -3.301871      0.031610     -0.234053
  C      -2.887762      0.123546      1.089380
  C      -1.569933     -0.089419      1.387761
  C       2.679709      1.551318     -1.243476
  H       0.900698     -0.509854      1.782152
  H       1.590331     -0.767042     -1.206626
  H      -0.396947     -0.705697     -1.774683
  H      -2.774507     -0.342444     -2.282341
  H      -4.347359      0.179471     -0.469582
  H      -3.599948      0.346600      1.869986
  H      -1.213549     -0.040441      2.407228
  H       2.419775      1.144026     -2.207962
  H       3.121853      2.123181      1.130755
  H       3.123728      2.536964     -1.194913
  Br     -0.429933     -3.716401      0.914826
23
Coordinates from ORCA-job orca_input E -105.778551549555
  Br      3.121329     -1.853922      0.433764
  C       0.670402     -0.508705      0.729073
  C       1.836534     -0.511669     -0.177601
  C       2.465152      0.851404     -0.146530
  O       2.736416      1.254620      1.113920
  C      -0.641802     -0.352622      0.357542
  C      -1.085742     -0.430744     -0.985512
  C      -2.408333     -0.246794     -1.268550
  C      -3.304610      0.024399     -0.233206
  C      -2.895274      0.105543      1.092627
  C      -1.576528     -0.098234      1.392517
  C       2.686438      1.541883     -1.254201
  H       0.897707     -0.500523      1.788616
  H       1.589251     -0.771412     -1.197810
  H      -0.389063     -0.670276     -1.773070
  H      -2.767672     -0.320073     -2.284217
  H      -4.350526      0.166671     -0.470487
  H      -3.612273      0.312289      1.873275
  H      -1.224075     -0.056798      2.413733
  H       2.424127      1.127190     -2.214943
  H       3.131080      2.132403      1.114875
  H       3.138587      2.524220     -1.214995
  Br     -0.441125     -3.718848      0.911179
23
Coordinates from ORCA-job orca_input E -105.778650224768
  Br      3.116229     -1.850369      0.448332
  C       0.668929     -0.499786      0.733620
  C       1.835750     -0.507770     -0.172328
  C       2.468947      0.852953     -0.150430
  O       2.743101      1.263209      1.107036
  C      -0.643013     -0.346399      0.361150
  C      -1.083829     -0.415033     -0.983850
  C      -2.406708     -0.236268     -1.268409
  C      -3.307166      0.018548     -0.232573
  C      -2.901636      0.089472      1.095190
  C      -1.582110     -0.106510      1.396158
  C       2.695076      1.533773     -1.263192
  H       0.895039     -0.491939      1.793437
  H       1.588631     -0.774349     -1.190739
  H      -0.383753     -0.640562     -1.772579
  H      -2.762921     -0.300623     -2.285774
  H      -4.353671      0.154836     -0.470955
  H      -3.622190      0.283681      1.875736
  H      -1.232682     -0.071528      2.418695
  H       2.431706      1.112833     -2.220974
  H       3.143195      2.138506      1.101601
  H       3.147400      2.516250     -1.230922
  Br     -0.454327     -3.722925      0.911767
23
Coordinates from ORCA-job orca_input E -105.778730735879
  Br      3.110656     -1.849497      0.460377
  C       0.668468     -0.491143      0.737136
  C       1.835900     -0.504592     -0.168120
  C       2.474263      0.853501     -0.153828
  O       2.749499      1.269986      1.101288
  C      -0.643325     -0.340890      0.363889
  C      -1.081660     -0.401854     -0.982689
  C      -2.404799     -0.227793     -1.268476
  C      -3.308816      0.012432     -0.232258
  C      -2.906267      0.075881      1.096909
  C      -1.586070     -0.113159      1.398816
  C       2.699115      1.528918     -1.270209
  H       0.893542     -0.484311      1.797185
  H       1.588685     -0.776652     -1.185013
  H      -0.378905     -0.614873     -1.772575
  H      -2.758597     -0.285641     -2.287067
  H      -4.355540      0.145316     -0.471767
  H      -3.629897      0.258542      1.877352
  H      -1.239104     -0.083327      2.422381
  H       2.432764      1.103992     -2.225445
  H       3.151936      2.144156      1.090853
  H       3.157930      2.508535     -1.243967
  Br     -0.469778     -3.727529      0.915230
23
Coordinates from ORCA-job orca_input E -105.778828389827
  Br      3.104410     -1.845651      0.476932
  C       0.667534     -0.480539      0.741643
  C       1.835664     -0.499827     -0.162663
  C       2.478864      0.855578     -0.158251
  O       2.758140      1.279085      1.093568
  C      -0.643967     -0.334296      0.367284
  C      -1.079274     -0.384863     -0.981231
  C      -2.402684     -0.216594     -1.268461
  C      -3.310796      0.006273     -0.231943
  C      -2.912172      0.057655      1.099054
  C      -1.591269     -0.123351      1.402187
  C       2.707569      1.521267     -1.279767
  H       0.891364     -0.471771      1.801958
  H       1.588856     -0.779638     -1.177497
  H      -0.373657     -0.582381     -1.772668
  H      -2.753213     -0.263565     -2.288731
  H      -4.358112      0.132701     -0.472579
  H      -3.639349      0.226610      1.879228
  H      -1.247436     -0.101333      2.427036
  H       2.439376      1.090185     -2.231781
  H       3.166391      2.150437      1.076332
  H       3.165504      2.501417     -1.260725
  Br     -0.491744     -3.737399      0.921076
23
Coordinates from ORCA-job orca_input E -105.778946105654
  Br      3.096704     -1.843116      0.496930
  C       0.668344     -0.467009      0.746979
  C       1.837139     -0.494445     -0.156163
  C       2.487068      0.857247     -0.164046
  O       2.769015      1.290479      1.083790
  C      -0.643129     -0.328255      0.371423
  C      -1.074289     -0.365061     -0.979559
  C      -2.397774     -0.202529     -1.268886
  C      -3.311371     -0.003538     -0.232168
  C      -2.917424      0.035446      1.100764
  C      -1.595841     -0.135904      1.405702
  C       2.710659      1.515599     -1.290979
  H       0.890550     -0.461976      1.807673
  H       1.590205     -0.783703     -1.168249
  H      -0.364661     -0.538952     -1.773138
  H      -2.744657     -0.239230     -2.290808
  H      -4.358493      0.120813     -0.474917
  H      -3.649099      0.186077      1.880400
  H      -1.255616     -0.121718      2.431908
  H       2.437039      1.078624     -2.238811
  H       3.179617      2.160521      1.058474
  H       3.177224      2.491777     -1.281373
  Br     -0.531210     -3.751147      0.935055
23
Coordinates from ORCA-job orca_input E -105.779079948380
  Br      3.090336     -1.834863      0.524686
  C       0.668971     -0.452937      0.753722
  C       1.838676     -0.487907     -0.147814
  C       2.492249      0.861084     -0.171812
  O       2.777116      1.307635      1.070613
  C      -0.641409     -0.318918      0.375976
  C      -1.067760     -0.336800     -0.977667
  C      -2.391625     -0.182763     -1.268764
  C      -3.310595     -0.008343     -0.232202
  C      -2.922938      0.005847      1.103111
  C      -1.600840     -0.155836      1.410071
  C       2.720285      1.504001     -1.306813
  H       0.889372     -0.439866      1.814758
  H       1.592687     -0.790704     -1.156126
  H      -0.355174     -0.489476     -1.773022
  H      -2.733255     -0.195627     -2.293014
  H      -4.358775      0.103787     -0.476536
  H      -3.659046      0.137537      1.881905
  H      -1.266173     -0.160069      2.438261
  H       2.446623      1.055684     -2.249393
  H       3.193152      2.174685      1.034252
  H       3.180967      2.482960     -1.308708
  Br     -0.582843     -3.779112      0.954516
23
Coordinates from ORCA-job orca_input E -105.779161711101
  Br      3.084698     -1.822546      0.563285
  C       0.671879     -0.435145      0.765830
  C       1.842036     -0.479567     -0.134885
  C       2.499464      0.866161     -0.183560
  O       2.783865      1.335656      1.050440
  C      -0.638698     -0.316875      0.385754
  C      -1.055297     -0.303492     -0.970678
  C      -2.377588     -0.150390     -1.267935
  C      -3.307156     -0.023530     -0.233494
  C      -2.927892     -0.028304      1.104402
  C      -1.606100     -0.181565      1.416242
  C       2.721473      1.491219     -1.329717
  H       0.889227     -0.439916      1.827669
  H       1.595796     -0.802095     -1.137061
  H      -0.333760     -0.403901     -1.764133
  H      -2.712911     -0.152976     -2.294326
  H      -4.352250      0.105019     -0.483115
  H      -3.672065      0.065120      1.880957
  H      -1.275738     -0.193103      2.445369
  H       2.445186      1.026995     -2.263844
  H       3.199776      2.201928      0.997448
  H       3.187737      2.467289     -1.350115
  Br     -0.661681     -3.825981      0.975467
23
Coordinates from ORCA-job orca_input E -105.779150147944
  Br      3.092100     -1.810875      0.591251
  C       0.677176     -0.431289      0.773111
  C       1.848608     -0.478308     -0.126028
  C       2.499788      0.868937     -0.192667
  O       2.773853      1.359646      1.035433
  C      -0.630506     -0.307282      0.389204
  C      -1.041701     -0.270645     -0.969621
  C      -2.364913     -0.126541     -1.267359
  C      -3.297469     -0.009857     -0.233968
  C      -2.926358     -0.059124      1.105136
  C      -1.604658     -0.205247      1.419297
  C       2.718971      1.479662     -1.346996
  H       0.892582     -0.421997      1.835229
  H       1.603061     -0.816120     -1.123358
  H      -0.318101     -0.366692     -1.763456
  H      -2.693659     -0.081279     -2.294882
  H      -4.346212      0.080123     -0.485151
  H      -3.672002      0.034719      1.880166
  H      -1.284878     -0.256165      2.451210
  H       2.449196      0.999725     -2.275095
  H       3.182537      2.228601      0.970723
  H       3.179293      2.458162     -1.380492
  Br     -0.736708     -3.868153      1.008311
23
Coordinates from ORCA-job orca_input E -105.779193231416
  Br      3.107568     -1.796401      0.606898
  C       0.680616     -0.437258      0.780080
  C       1.852612     -0.479197     -0.119164
  C       2.489982      0.873685     -0.198504
  O       2.760821      1.377901      1.024928
  C      -0.627002     -0.315414      0.393785
  C      -1.032662     -0.257360     -0.966809
  C      -2.353309     -0.101279     -1.267815
  C      -3.290904     -0.012708     -0.236320
  C      -2.923290     -0.067756      1.103648
  C      -1.603468     -0.225489      1.422086
  C       2.715789      1.469792     -1.359142
  H       0.894020     -0.436259      1.842797
  H       1.608421     -0.827755     -1.113248
  H      -0.304915     -0.327591     -1.760487
  H      -2.679901     -0.056666     -2.296069
  H      -4.334728      0.119039     -0.489682
  H      -3.674248     -0.003920      1.876548
  H      -1.284787     -0.280086      2.453579
  H       2.455759      0.976211     -2.282850
  H       3.166594      2.247577      0.951627
  H       3.154483      2.457828     -1.401502
  Br     -0.777453     -3.896895      1.035617
23
Coordinates from ORCA-job orca_input E -105.779239609495
  Br      3.108198     -1.801715      0.600963
  C       0.679309     -0.440583      0.779528
  C       1.851550     -0.483148     -0.119977
  C       2.489775      0.869836     -0.195407
  O       2.758438      1.371466      1.029514
  C      -0.628600     -0.315495      0.392782
  C      -1.036233     -0.264262     -0.967410
  C      -2.356807     -0.107179     -1.268364
  C      -3.292441     -0.007003     -0.236351
  C      -2.923294     -0.058490      1.103293
  C      -1.603093     -0.215615      1.421103
  C       2.710935      1.471389     -1.354156
  H       0.892481     -0.446465      1.842312
  H       1.607571     -0.828175     -1.115351
  H      -0.309534     -0.342272     -1.761391
  H      -2.684155     -0.066070     -2.296518
  H      -4.337722      0.113795     -0.489109
  H      -3.672470      0.017132      1.876909
  H      -1.282759     -0.265334      2.452326
  H       2.448972      0.981356     -2.279197
  H       3.161619      2.242572      0.959019
  H       3.157733      2.455906     -1.393933
  Br     -0.739474     -3.881646      1.019413
23
Coordinates from ORCA-job orca_input E -105.779230156020
  Br      3.112599     -1.802333      0.599981
  C       0.677942     -0.447082      0.780308
  C       1.850491     -0.488224     -0.119077
  C       2.484712      0.866780     -0.194339
  O       2.751511      1.369053      1.030706
  C      -0.628930     -0.314371      0.392635
  C      -1.036245     -0.262962     -0.967598
  C      -2.356667     -0.104764     -1.268723
  C      -3.292231     -0.002739     -0.236785
  C      -2.923156     -0.053411      1.102809
  C      -1.603360     -0.213353      1.421132
  C       2.707557      1.467574     -1.353166
  H       0.890799     -0.451218      1.843069
  H       1.607221     -0.833201     -1.114652
  H      -0.310349     -0.348075     -1.761613
  H      -2.683823     -0.063411     -2.296907
  H      -4.336929      0.122885     -0.489544
  H      -3.672516      0.022743      1.876221
  H      -1.283597     -0.264883      2.452563
  H       2.448251      0.976332     -2.278304
  H       3.153484      2.240739      0.960471
  H       3.149700      2.454202     -1.392718
  Br     -0.706463     -3.870280      1.013529
23
Coordinates from ORCA-job orca_input E -105.779227376816
  Br      3.117301     -1.800709      0.605284
  C       0.677270     -0.450617      0.783091
  C       1.850455     -0.492301     -0.115798
  C       2.481474      0.864051     -0.195626
  O       2.744894      1.371772      1.027904
  C      -0.629312     -0.314821      0.394689
  C      -1.034172     -0.256566     -0.966066
  C      -2.354120     -0.095942     -1.268519
  C      -3.291392      0.002283     -0.237459
  C      -2.924680     -0.055492      1.102506
  C      -1.605131     -0.214719      1.421922
  C       2.702925      1.461688     -1.356328
  H       0.888296     -0.469141      1.846042
  H       1.607589     -0.841003     -1.110168
  H      -0.306612     -0.333954     -1.759568
  H      -2.679728     -0.050404     -2.297025
  H      -4.336712      0.120116     -0.491408
  H      -3.674954      0.020291      1.875116
  H      -1.286531     -0.268403      2.453564
  H       2.445554      0.966541     -2.279915
  H       3.144551      2.244329      0.955066
  H       3.147008      2.447329     -1.399148
  Br     -0.683972     -3.854328      1.011842
23
Coordinates from ORCA-job orca_input E -105.779223712762
  Br      3.123866     -1.799587      0.606721
  C       0.676921     -0.457454      0.784378
  C       1.850817     -0.497494     -0.114120
  C       2.476141      0.861467     -0.195940
  O       2.735433      1.372411      1.027186
  C      -0.628285     -0.313194      0.394890
  C      -1.032748     -0.251703     -0.965623
  C      -2.352427     -0.090193     -1.268617
  C      -3.290186      0.006116     -0.238062
  C      -2.923946     -0.052948      1.101785
  C      -1.604796     -0.215635      1.421723
  C       2.698802      1.457156     -1.357349
  H       0.887288     -0.473825      1.847427
  H       1.608665     -0.848150     -1.108076
  H      -0.305291     -0.333210     -1.758586
  H      -2.677426     -0.042145     -2.297214
  H      -4.334700      0.130390     -0.492277
  H      -3.674794      0.019882      1.874126
  H      -1.287090     -0.274534      2.453344
  H       2.445767      0.958971     -2.280496
  H       3.132705      2.246010      0.953631
  H       3.138353      2.444795     -1.401089
  Br     -0.663070     -3.847126      1.012237
23
Coordinates from ORCA-job orca_input E -105.779220566196
  Br      3.127215     -1.797567      0.609140
  C       0.677524     -0.459309      0.785697
  C       1.851605     -0.498735     -0.112791
  C       2.474231      0.861344     -0.196775
  O       2.731428      1.375090      1.025655
  C      -0.627593     -0.314428      0.395709
  C      -1.031160     -0.249754     -0.964809
  C      -2.350320     -0.086100     -1.268679
  C      -3.288632      0.009744     -0.238599
  C      -2.923328     -0.053035      1.101337
  C      -1.604410     -0.216931      1.421897
  C       2.695997      1.455673     -1.359032
  H       0.887277     -0.480171      1.848823
  H       1.609818     -0.851248     -1.106214
  H      -0.302848     -0.328304     -1.757304
  H      -2.674455     -0.035872     -2.297441
  H      -4.333252      0.132068     -0.493309
  H      -3.674420      0.020196      1.873404
  H      -1.287021     -0.276931      2.453511
  H       2.444463      0.955466     -2.281493
  H       3.126981      2.249362      0.950827
  H       3.134048      2.443914     -1.404166
  Br     -0.663148     -3.854471      1.014610
23
Coordinates from ORCA-job orca_input E -105.779226580458
  Br      3.119856     -1.801530      0.605247
  C       0.675299     -0.454645      0.784309
  C       1.849187     -0.496485     -0.114441
  C       2.477219      0.861255     -0.195517
  O       2.737225      1.371149      1.027870
  C      -0.630272     -0.312233      0.395292
  C      -1.035527     -0.252175     -0.964840
  C      -2.355217     -0.091714     -1.268112
  C      -3.292742      0.005648     -0.237526
  C      -2.926034     -0.052453      1.102237
  C      -1.606403     -0.212407      1.421816
  C       2.702991      1.456304     -1.356653
  H       0.885750     -0.475556      1.847317
  H       1.606647     -0.846338     -1.108569
  H      -0.307737     -0.330756     -1.757732
  H      -2.680498     -0.046166     -2.296740
  H      -4.338222      0.121625     -0.491703
  H      -3.676524      0.021927      1.874804
  H      -1.287485     -0.267599      2.453165
  H       2.449812      0.958728     -2.280089
  H       3.137233      2.243537      0.954808
  H       3.145531      2.442648     -1.399853
  Br     -0.650088     -3.842763      1.004910
23
Coordinates from ORCA-job orca_input E -105.779229069839
  Br      3.115568     -1.806679      0.596842
  C       0.674921     -0.453532      0.781576
  C       1.848168     -0.495689     -0.117619
  C       2.480576      0.860499     -0.192644
  O       2.745301      1.362899      1.032858
  C      -0.631097     -0.311678      0.393405
  C      -1.038681     -0.261248     -0.966272
  C      -2.358963     -0.103192     -1.268477
  C      -3.294881      0.001128     -0.237198
  C      -2.925890     -0.046958      1.102268
  C      -1.605839     -0.205795      1.420705
  C       2.703163      1.462253     -1.350934
  H       0.886831     -0.466537      1.844358
  H       1.604540     -0.840406     -1.113233
  H      -0.312242     -0.348249     -1.759516
  H      -2.685939     -0.065057     -2.296864
  H      -4.340306      0.119500     -0.490488
  H      -3.675049      0.032595      1.875604
  H      -1.285500     -0.256321      2.451927
  H       2.444756      0.971212     -2.276425
  H       3.146606      2.235001      0.963653
  H       3.150302      2.446692     -1.389800
  Br     -0.646343     -3.830439      0.996277
23
Coordinates from ORCA-job orca_input E -105.779227455183
  Br      3.120590     -1.807175      0.595581
  C       0.675495     -0.458871      0.781235
  C       1.849352     -0.499350     -0.117389
  C       2.475840      0.859447     -0.193912
  O       2.736533      1.364839      1.031265
  C      -0.629878     -0.313198      0.392749
  C      -1.035428     -0.254779     -0.967651
  C      -2.355467     -0.094348     -1.269795
  C      -3.292247      0.005407     -0.238528
  C      -2.924775     -0.049614      1.101238
  C      -1.605305     -0.211127      1.420339
  C       2.699644      1.459428     -1.352872
  H       0.886048     -0.478677      1.844115
  H       1.605837     -0.844731     -1.112827
  H      -0.308641     -0.338699     -1.761202
  H      -2.681610     -0.049699     -2.298178
  H      -4.337420      0.125057     -0.492232
  H      -3.674732      0.026629      1.874146
  H      -1.286222     -0.265959      2.451854
  H       2.445692      0.965393     -2.278000
  H       3.135550      2.237939      0.961330
  H       3.141413      2.446254     -1.392530
  Br     -0.640269     -3.824167      1.021265
23
Coordinates from ORCA-job orca_input E -105.779227959426
  Br      3.124607     -1.803054      0.602668
  C       0.675299     -0.461189      0.783744
  C       1.849937     -0.501503     -0.114528
  C       2.473505      0.858366     -0.196022
  O       2.731262      1.369106      1.027626
  C      -0.629301     -0.311555      0.394066
  C      -1.033678     -0.246718     -0.966076
  C      -2.353123     -0.084639     -1.269692
  C      -3.291423      0.008845     -0.239389
  C      -2.925535     -0.052493      1.100391
  C      -1.606242     -0.214503      1.420371
  C       2.696966      1.454662     -1.356923
  H       0.884787     -0.484058      1.846846
  H       1.607627     -0.851441     -1.108742
  H      -0.305509     -0.325788     -1.758598
  H      -2.677857     -0.036067     -2.298355
  H      -4.336224      0.130112     -0.493891
  H      -3.676517      0.019433      1.872728
  H      -1.288730     -0.276398      2.451814
  H       2.445455      0.956494     -2.280495
  H       3.129030      2.242568      0.954956
  H       3.137376      2.441979     -1.399740
  Br     -0.631712     -3.832159      1.027241
23
Coordinates from ORCA-job orca_input E -105.779230083228
  Br      3.130124     -1.802218      0.601250
  C       0.674734     -0.467772      0.783837
  C       1.849810     -0.505854     -0.114285
  C       2.467935      0.856560     -0.196860
  O       2.723475      1.368808      1.026724
  C      -0.629189     -0.312512      0.393659
  C      -1.032206     -0.240790     -0.966518
  C      -2.351230     -0.076920     -1.270909
  C      -3.290304      0.014777     -0.241118
  C      -2.925547     -0.050887      1.098703
  C      -1.606892     -0.216980      1.419415
  C       2.692902      1.451756     -1.357971
  H       0.883256     -0.497733      1.846912
  H       1.607776     -0.856757     -1.108296
  H      -0.303033     -0.318549     -1.758368
  H      -2.674789     -0.022996     -2.299667
  H      -4.335018      0.135569     -0.496189
  H      -3.677205      0.018234      1.870654
  H      -1.289210     -0.279803      2.450763
  H       2.445099      0.951640     -2.281491
  H       3.120629      2.242543      0.953913
  H       3.128799      2.441075     -1.400827
  Br     -0.609918     -3.831191      1.046670
23
Coordinates from ORCA-job orca_input E -105.779233071636
  Br      3.127767     -1.806136      0.595294
  C       0.673844     -0.468345      0.781286
  C       1.849156     -0.506390     -0.116823
  C       2.468138      0.855746     -0.197085
  O       2.722717      1.366009      1.027537
  C      -0.629824     -0.311109      0.391643
  C      -1.033147     -0.237438     -0.968535
  C      -2.352384     -0.073712     -1.272217
  C      -3.291559      0.013858     -0.241940
  C      -2.926632     -0.053355      1.097838
  C      -1.607646     -0.217100      1.417903
  C       2.694453      1.452608     -1.357060
  H       0.882169     -0.500647      1.844287
  H       1.606421     -0.854832     -1.111527
  H      -0.303983     -0.312928     -1.760710
  H      -2.676569     -0.020206     -2.300807
  H      -4.336333      0.134875     -0.496687
  H      -3.678036      0.015629      1.870078
  H      -1.290784     -0.284630      2.449302
  H       2.447311      0.953944     -2.281544
  H       3.121232      2.239277      0.956519
  H       3.132599      2.441029     -1.397995
  Br     -0.598912     -3.826145      1.071245
23
Coordinates from ORCA-job orca_input E -105.779233275658
  Br      3.124995     -1.809005      0.588519
  C       0.673327     -0.468565      0.778239
  C       1.848463     -0.505455     -0.120160
  C       2.469075      0.856131     -0.196935
  O       2.726105      1.362107      1.028982
  C      -0.630466     -0.311787      0.389264
  C      -1.034061     -0.236636     -0.970947
  C      -2.353612     -0.074036     -1.273800
  C      -3.292262      0.013482     -0.243115
  C      -2.926887     -0.053718      1.096493
  C      -1.608046     -0.219387      1.416191
  C       2.695620      1.455963     -1.355328
  H       0.881982     -0.500836      1.841156
  H       1.605110     -0.850844     -1.115779
  H      -0.305219     -0.311756     -1.763478
  H      -2.678125     -0.017879     -2.302144
  H      -4.337279      0.133203     -0.497499
  H      -3.678452      0.011884      1.868855
  H      -1.289941     -0.283805      2.447324
  H       2.446992      0.960386     -2.281076
  H       3.126665      2.234628      0.960271
  H       3.134599      2.444116     -1.393632
  Br     -0.598585     -3.828190      1.098600
23
Coordinates from ORCA-job orca_input E -105.779235724785
  Br      3.119867     -1.812818      0.579502
  C       0.673460     -0.465902      0.773924
  C       1.848123     -0.502176     -0.124955
  C       2.473323      0.857569     -0.195952
  O       2.734475      1.356668      1.031879
  C      -0.631072     -0.312385      0.386203
  C      -1.036296     -0.241053     -0.973726
  C      -2.356261     -0.078836     -1.275235
  C      -3.293894      0.009412     -0.243595
  C      -2.927105     -0.055729      1.095755
  C      -1.607582     -0.218252      1.413955
  C       2.698800      1.462661     -1.351841
  H       0.883015     -0.496594      1.836727
  H       1.603987     -0.842760     -1.121988
  H      -0.308373     -0.316316     -1.767071
  H      -2.682315     -0.026685     -2.303311
  H      -4.339096      0.129481     -0.497032
  H      -3.677443      0.013763      1.868968
  H      -1.289349     -0.284021      2.444983
  H       2.446254      0.972624     -2.279480
  H       3.137200      2.228450      0.966627
  H       3.140794      2.449609     -1.386198
  Br     -0.610511     -3.826712      1.121860
23
Coordinates from ORCA-job orca_input E -105.779240004176
  Br      3.116029     -1.816220      0.570119
  C       0.673774     -0.465029      0.769233
  C       1.847839     -0.499764     -0.130139
  C       2.477222      0.858402     -0.194615
  O       2.742518      1.350010      1.035300
  C      -0.631537     -0.314369      0.382615
  C      -1.038426     -0.246241     -0.977018
  C      -2.358812     -0.084805     -1.277046
  C      -3.294863      0.007330     -0.244458
  C      -2.926361     -0.055156      1.094505
  C      -1.606697     -0.219426      1.411477
  C       2.700051      1.470062     -1.347606
  H       0.884453     -0.492491      1.831934
  H       1.603362     -0.835406     -1.128699
  H      -0.311779     -0.323619     -1.771239
  H      -2.686134     -0.033691     -2.304769
  H      -4.340361      0.127141     -0.496820
  H      -3.675900      0.014265      1.868470
  H      -1.286511     -0.281040      2.442096
  H       2.443084      0.986340     -2.277348
  H       3.146268      2.221569      0.973872
  H       3.145079      2.455782     -1.377523
  Br     -0.622299     -3.823644      1.147659
23
Coordinates from ORCA-job orca_input E -105.779243497381
  Br      3.113274     -1.818926      0.559917
  C       0.673653     -0.465251      0.764452
  C       1.847057     -0.497845     -0.135567
  C       2.480072      0.858996     -0.193274
  O       2.749388      1.342861      1.038780
  C      -0.632373     -0.316084      0.378842
  C      -1.041105     -0.250872     -0.980183
  C      -2.361755     -0.089242     -1.279053
  C      -3.296534      0.005314     -0.245532
  C      -2.926293     -0.055315      1.093012
  C      -1.606125     -0.218894      1.408399
  C       2.701985      1.476681     -1.343266
  H       0.885370     -0.492612      1.826971
  H       1.602356     -0.828539     -1.135681
  H      -0.315413     -0.329733     -1.775047
  H      -2.690359     -0.040884     -2.306498
  H      -4.342180      0.126127     -0.496768
  H      -3.674433      0.017826      1.867991
  H      -1.284936     -0.280966      2.438678
  H       2.441525      0.999085     -2.275205
  H       3.154655      2.213970      0.981353
  H       3.148523      2.461841     -1.368457
  Br     -0.626352     -3.817539      1.176136
23
Coordinates from ORCA-job orca_input E -105.779244805285
  Br      3.111106     -1.822150      0.550415
  C       0.673244     -0.466568      0.760233
  C       1.846050     -0.497158     -0.140406
  C       2.482174      0.858562     -0.192173
  O       2.754087      1.335954      1.041772
  C      -0.633187     -0.317470      0.375322
  C      -1.043216     -0.253246     -0.983303
  C      -2.364129     -0.091871     -1.281135
  C      -3.297805      0.004748     -0.246853
  C      -2.926212     -0.054830      1.091323
  C      -1.605944     -0.220046      1.405682
  C       2.702481      1.481935     -1.339440
  H       0.885833     -0.493445      1.822582
  H       1.601053     -0.823394     -1.141875
  H      -0.318299     -0.333298     -1.778733
  H      -2.693597     -0.044107     -2.308330
  H      -4.343671      0.125554     -0.497166
  H      -3.673631      0.018219      1.866991
  H      -1.283286     -0.280706      2.435561
  H       2.438985      1.009761     -2.273293
  H       3.159969      2.206995      0.987936
  H       3.152155      2.465762     -1.360550
  Br     -0.624159     -3.809201      1.205439
23
Coordinates from ORCA-job orca_input E -105.779244913687
  Br      3.112222     -1.823933      0.542482
  C       0.672903     -0.470241      0.757556
  C       1.845145     -0.498212     -0.143760
  C       2.481132      0.857830     -0.191685
  O       2.753983      1.331377      1.043511
  C      -0.633584     -0.318836      0.372817
  C      -1.044052     -0.252974     -0.985391
  C      -2.364892     -0.090408     -1.283012
  C      -3.298324      0.006107     -0.248463
  C      -2.926284     -0.054825      1.089477
  C      -1.605957     -0.221106      1.403231
  C       2.701841      1.484165     -1.337268
  H       0.885842     -0.500472      1.819705
  H       1.599850     -0.821589     -1.146065
  H      -0.319152     -0.333045     -1.780825
  H      -2.694433     -0.042007     -2.310149
  H      -4.344121      0.128324     -0.498345
  H      -3.673133      0.019418      1.865594
  H      -1.283074     -0.284536      2.432881
  H       2.438021      1.014745     -2.272412
  H       3.159850      2.202569      0.992089
  H       3.150716      2.468411     -1.355606
  Br     -0.614499     -3.800761      1.233637
23
Coordinates from ORCA-job orca_input E -105.779246043279
  Br      3.114903     -1.825684      0.539216
  C       0.673077     -0.474437      0.756869
  C       1.845266     -0.501028     -0.144634
  C       2.478986      0.856164     -0.191895
  O       2.750416      1.329670      1.043608
  C      -0.633047     -0.319638      0.371776
  C      -1.042861     -0.249826     -0.986395
  C      -2.363482     -0.085882     -1.284264
  C      -3.297297      0.009254     -0.249946
  C      -2.925823     -0.054729      1.087975
  C      -1.605903     -0.223884      1.402030
  C       2.697917      1.483838     -1.337084
  H       0.885768     -0.506844      1.818937
  H       1.599911     -0.823843     -1.147092
  H      -0.317587     -0.328803     -1.781620
  H      -2.692380     -0.034710     -2.311471
  H      -4.342973      0.132199     -0.499988
  H      -3.673077      0.017053      1.863936
  H      -1.283057     -0.288988      2.431586
  H       2.434694      1.014627     -2.272501
  H       3.154026      2.201949      0.992797
  H       3.146881      2.468061     -1.354955
  Br     -0.604360     -3.794518      1.253114
23
Coordinates from ORCA-job orca_input E -105.779249888427
  Br      3.118942     -1.826453      0.535649
  C       0.672924     -0.480098      0.756052
  C       1.845250     -0.504568     -0.145528
  C       2.474971      0.854559     -0.192235
  O       2.745595      1.327805      1.043549
  C      -0.632709     -0.320761      0.370546
  C      -1.041716     -0.245676     -0.987427
  C      -2.361962     -0.079276     -1.285823
  C      -3.296465      0.013142     -0.251862
  C      -2.925753     -0.055101      1.086046
  C      -1.606072     -0.225917      1.400234
  C       2.694439      1.482449     -1.337185
  H       0.885015     -0.517934      1.818026
  H       1.600208     -0.827220     -1.148128
  H      -0.315870     -0.322972     -1.782285
  H      -2.689947     -0.024618     -2.313150
  H      -4.341842      0.138125     -0.502135
  H      -3.673131      0.016424      1.861930
  H      -1.284070     -0.295879      2.429730
  H       2.433247      1.012745     -2.272920
  H       3.147722      2.200808      0.993322
  H       3.138810      2.468777     -1.354371
  Br     -0.587587     -3.788359      1.277962
23
Coordinates from ORCA-job orca_input E -105.779259065775
  Br      3.119025     -1.831413      0.526251
  C       0.672427     -0.484840      0.752194
  C       1.844797     -0.507315     -0.149657
  C       2.473939      0.852291     -0.192144
  O       2.744310      1.321636      1.045127
  C      -0.632876     -0.322062      0.367092
  C      -1.041661     -0.242036     -0.990686
  C      -2.361907     -0.074233     -1.288495
  C      -3.296368      0.015826     -0.254299
  C      -2.925703     -0.056100      1.083445
  C      -1.606323     -0.229827      1.397277
  C       2.691249      1.484757     -1.334995
  H       0.884376     -0.525649      1.814016
  H       1.599704     -0.826760     -1.153252
  H      -0.316044     -0.317759     -1.785949
  H      -2.689713     -0.016269     -2.315698
  H      -4.341759      0.141362     -0.504241
  H      -3.673249      0.012292      1.859460
  H      -1.284154     -0.301900      2.426584
  H       2.429606      1.018244     -2.272195
  H       3.144450      2.195719      0.997830
  H       3.137471      2.470314     -1.349193
  Br     -0.571597     -3.776279      1.321531
23
Coordinates from ORCA-job orca_input E -105.779276479172
  Br      3.114775     -1.838910      0.504309
  C       0.671072     -0.488990      0.743723
  C       1.842422     -0.506874     -0.159638
  C       2.474900      0.851547     -0.190692
  O       2.750408      1.308059      1.050198
  C      -0.634736     -0.325604      0.360429
  C      -1.045076     -0.244439     -0.996688
  C      -2.365543     -0.074900     -1.292922
  C      -3.298691      0.015456     -0.257590
  C      -2.926380     -0.057211      1.079692
  C      -1.606669     -0.231849      1.391822
  C       2.693649      1.492968     -1.328287
  H       0.884197     -0.532729      1.805152
  H       1.596367     -0.817341     -1.165781
  H      -0.320767     -0.320241     -1.793128
  H      -2.694377     -0.016223     -2.319767
  H      -4.344208      0.142633     -0.506178
  H      -3.672682      0.013283      1.856737
  H      -1.283714     -0.305631      2.420704
  H       2.429318      1.035593     -2.269226
  H       3.152506      2.181607      1.010270
  H       3.139359      2.478845     -1.334174
  Br     -0.556130     -3.759048      1.391036
23
Coordinates from ORCA-job orca_input E -105.779287332124
  Br      3.099160     -1.852300      0.469934
  C       0.668781     -0.486699      0.729019
  C       1.838335     -0.499863     -0.176757
  C       2.485110      0.852080     -0.188708
  O       2.768571      1.287097      1.057981
  C      -0.638675     -0.328979      0.349621
  C      -1.052398     -0.250125     -1.006816
  C      -2.374197     -0.083024     -1.298935
  C      -3.304293      0.008322     -0.260890
  C      -2.928309     -0.062288      1.075498
  C      -1.607864     -0.236766      1.384465
  C       2.702838      1.510140     -1.317047
  H       0.884433     -0.529769      1.789889
  H       1.590109     -0.794205     -1.187064
  H      -0.331093     -0.327064     -1.805867
  H      -2.706169     -0.025276     -2.324818
  H      -4.350638      0.134194     -0.506665
  H      -3.672890      0.006751      1.854316
  H      -1.282294     -0.307780      2.412677
  H       2.429334      1.070341     -2.263744
  H       3.175189      2.159005      1.030443
  H       3.163069      2.489323     -1.310056
  Br     -0.556109     -3.733111      1.493522
23
Coordinates from ORCA-job orca_input E -105.779291236572
  Br      3.096499     -1.854347      0.461739
  C       0.668853     -0.486653      0.726340
  C       1.837631     -0.497619     -0.179919
  C       2.484910      0.853946     -0.188968
  O       2.768580      1.286721      1.058482
  C      -0.639369     -0.330723      0.347300
  C      -1.054117     -0.248997     -1.008616
  C      -2.375575     -0.079975     -1.300635
  C      -3.305356      0.008977     -0.262250
  C      -2.928973     -0.066116      1.073696
  C      -1.608312     -0.240937      1.382101
  C       2.707637      1.511460     -1.316652
  H       0.885461     -0.530568      1.786996
  H       1.588094     -0.788449     -1.190890
  H      -0.332619     -0.321758     -1.807901
  H      -2.707694     -0.020069     -2.326345
  H      -4.351646      0.136540     -0.507381
  H      -3.673089      0.002989      1.852929
  H      -1.282804     -0.316525      2.409884
  H       2.435547      1.072418     -2.264126
  H       3.177802      2.157481      1.032526
  H       3.164962      2.491947     -1.307954
  Br     -0.556422     -3.739741      1.529646
23
Coordinates from ORCA-job orca_input E -105.779289491499
  Br      3.096007     -1.858141      0.455967
  C       0.670725     -0.489492      0.723632
  C       1.839564     -0.498426     -0.182360
  C       2.485628      0.853652     -0.190100
  O       2.769774      1.285329      1.057611
  C      -0.637394     -0.333941      0.344533
  C      -1.050532     -0.244806     -1.011880
  C      -2.371881     -0.073794     -1.303327
  C      -3.302189      0.011407     -0.264825
  C      -2.927029     -0.071219      1.070958
  C      -1.606991     -0.249944      1.379520
  C       2.700135      1.515545     -1.316852
  H       0.886496     -0.536317      1.784328
  H       1.589666     -0.787078     -1.193882
  H      -0.328610     -0.315163     -1.811105
  H      -2.703408     -0.006543     -2.328753
  H      -4.348034      0.142666     -0.509910
  H      -3.671905     -0.007167      1.849892
  H      -1.282202     -0.330526      2.407122
  H       2.424614      1.078493     -2.264244
  H       3.175763      2.157619      1.032693
  H       3.160648      2.494539     -1.308046
  Br     -0.568847     -3.736694      1.579026
23
Coordinates from ORCA-job orca_input E -105.779290919246
  Br      3.095170     -1.859021      0.448805
  C       0.669726     -0.492057      0.720379
  C       1.838550     -0.498045     -0.185471
  C       2.485105      0.853789     -0.188801
  O       2.771498      1.280360      1.060107
  C      -0.638783     -0.336903      0.341568
  C      -1.053954     -0.248640     -1.014131
  C      -2.374734     -0.073856     -1.305139
  C      -3.303889      0.013260     -0.265974
  C      -2.927500     -0.070452      1.069378
  C      -1.607184     -0.250604      1.376827
  C       2.703278      1.517559     -1.313767
  H       0.886244     -0.538325      1.780980
  H       1.588820     -0.783004     -1.198075
  H      -0.332861     -0.318392     -1.813946
  H      -2.707098     -0.008433     -2.330440
  H      -4.349811      0.145653     -0.510122
  H      -3.671297     -0.003391      1.849088
  H      -1.281145     -0.331821      2.403878
  H       2.428327      1.083190     -2.262562
  H       3.180043      2.151525      1.037844
  H       3.158490      2.498989     -1.301488
  Br     -0.556995     -3.731379      1.601061
23
Coordinates from ORCA-job orca_input E -105.779289083318
  Br      3.091488     -1.865248      0.437873
  C       0.668501     -0.494400      0.715524
  C       1.837472     -0.498798     -0.189806
  C       2.486690      0.851872     -0.187746
  O       2.772981      1.273534      1.062776
  C      -0.639910     -0.338852      0.337022
  C      -1.055442     -0.247044     -1.018401
  C      -2.376740     -0.072858     -1.308007
  C      -3.305432      0.013732     -0.268151
  C      -2.928385     -0.070879      1.066759
  C      -1.608193     -0.253004      1.372910
  C       2.700914      1.521876     -1.309775
  H       0.885042     -0.546287      1.775760
  H       1.586707     -0.778089     -1.203760
  H      -0.334638     -0.320951     -1.818070
  H      -2.709298     -0.002243     -2.332862
  H      -4.351184      0.149011     -0.511514
  H      -3.671784     -0.005274      1.846991
  H      -1.281339     -0.336016      2.399643
  H       2.423647      1.092220     -2.260033
  H       3.180861      2.145116      1.044096
  H       3.164107      2.499522     -1.294387
  Br     -0.536064     -3.716942      1.643158
23
Coordinates from ORCA-job orca_input E -105.779296655400
  Br      3.089954     -1.868058      0.428224
  C       0.668020     -0.497043      0.712217
  C       1.836505     -0.498674     -0.193887
  C       2.486114      0.851789     -0.187184
  O       2.775629      1.267776      1.064467
  C      -0.640564     -0.342398      0.334395
  C      -1.056434     -0.249371     -1.020869
  C      -2.377251     -0.071554     -1.310035
  C      -3.305553      0.015501     -0.269799
  C      -2.928516     -0.072146      1.064998
  C      -1.608521     -0.256786      1.370743
  C       2.701316      1.524990     -1.307126
  H       0.885203     -0.546723      1.772412
  H       1.585139     -0.773937     -1.208788
  H      -0.335875     -0.321030     -1.821177
  H      -2.710212     -0.001520     -2.334817
  H      -4.351261      0.151623     -0.512858
  H      -3.671607     -0.005793      1.845454
  H      -1.281369     -0.341045      2.397246
  H       2.423144      1.098831     -2.258692
  H       3.185187      2.138631      1.048631
  H       3.161775      2.503870     -1.288369
  Br     -0.530824     -3.706933      1.674815
23
Coordinates from ORCA-job orca_input E -105.779302117550
  Br      3.088686     -1.872066      0.416271
  C       0.667962     -0.500215      0.708615
  C       1.835659     -0.499053     -0.198408
  C       2.486156      0.850996     -0.186073
  O       2.777429      1.261064      1.067097
  C      -0.641007     -0.345676      0.331205
  C      -1.057678     -0.252696     -1.023600
  C      -2.378242     -0.072486     -1.312455
  C      -3.305825      0.017260     -0.271957
  C      -2.928170     -0.070423      1.062593
  C      -1.608345     -0.257690      1.367734
  C       2.699248      1.529716     -1.303087
  H       0.885938     -0.551146      1.768577
  H       1.583301     -0.769318     -1.214358
  H      -0.337573     -0.327296     -1.823806
  H      -2.711335     -0.001414     -2.337130
  H      -4.351209      0.156662     -0.514546
  H      -3.670617     -0.001991      1.843477
  H      -1.280721     -0.342660      2.393960
  H       2.419097      1.108369     -2.256213
  H       3.186707      2.132111      1.054905
  H       3.160492      2.508146     -1.280419
  Br     -0.519952     -3.700195      1.707618
23
Coordinates from ORCA-job orca_input E -105.779309661433
  Br      3.087526     -1.875833      0.406476
  C       0.667446     -0.503489      0.705850
  C       1.834533     -0.500084     -0.201897
  C       2.485366      0.849780     -0.185258
  O       2.778888      1.254826      1.069015
  C      -0.641637     -0.348285      0.328506
  C      -1.058508     -0.253632     -1.026257
  C      -2.378758     -0.070831     -1.314860
  C      -3.305982      0.019455     -0.274130
  C      -2.928255     -0.070356      1.060351
  C      -1.608712     -0.260053      1.365313
  C       2.697447      1.532460     -1.300045
  H       0.885932     -0.554649      1.765668
  H       1.581283     -0.766498     -1.218586
  H      -0.338647     -0.327962     -1.826801
  H      -2.711922      0.000983     -2.339462
  H      -4.351266      0.160037     -0.516465
  H      -3.670501     -0.001447      1.841386
  H      -1.280872     -0.345915      2.391398
  H       2.415845      1.114800     -2.254359
  H       3.188475      2.125778      1.059668
  H       3.158455      2.510925     -1.274267
  Br     -0.506137     -3.690008      1.738756
23
Coordinates from ORCA-job orca_input E -105.779316804955
  Br      3.087699     -1.879195      0.397228
  C       0.667079     -0.507722      0.703423
  C       1.833619     -0.501921     -0.204984
  C       2.483949      0.848191     -0.184413
  O       2.779016      1.248955      1.070872
  C      -0.642010     -0.350765      0.325904
  C      -1.058927     -0.254261     -1.028686
  C      -2.378843     -0.068824     -1.317254
  C      -3.305838      0.022270     -0.276485
  C      -2.928112     -0.069364      1.057875
  C      -1.608864     -0.261600      1.362728
  C       2.694172      1.534870     -1.297082
  H       0.885778     -0.561001      1.763039
  H       1.579643     -0.764909     -1.222354
  H      -0.339235     -0.329615     -1.829260
  H      -2.711758      0.004689     -2.341816
  H      -4.350829      0.165344     -0.518619
  H      -3.670163      0.000397      1.839024
  H      -1.281123     -0.349336      2.388642
  H       2.411330      1.120520     -2.252471
  H       3.188006      2.120217      1.064141
  H       3.154708      2.513478     -1.268453
  Br     -0.489295     -3.680420      1.769002
23
Coordinates from ORCA-job orca_input E -105.779325433506
  Br      3.088382     -1.883079      0.387752
  C       0.666049     -0.513587      0.700662
  C       1.832333     -0.505071     -0.208090
  C       2.481396      0.845652     -0.183768
  O       2.777632      1.242508      1.072471
  C      -0.642800     -0.353422      0.322598
  C      -1.059206     -0.251652     -1.031958
  C      -2.378670     -0.062712     -1.320416
  C      -3.305757      0.026659     -0.279646
  C      -2.928534     -0.070036      1.054552
  C      -1.609758     -0.265692      1.359493
  C       2.690277      1.535851     -1.294500
  H       0.884508     -0.570444      1.760063
  H       1.577737     -0.764836     -1.226078
  H      -0.339538     -0.325501     -1.832804
  H      -2.711052      0.014509     -2.344878
  H      -4.350484      0.171957     -0.521598
  H      -3.670776     -0.001420      1.835634
  H      -1.282419     -0.357295      2.385168
  H       2.406919      1.124261     -2.250932
  H       3.186063      2.114061      1.068218
  H       3.149998      2.514764     -1.263197
  Br     -0.462300     -3.665474      1.811254
23
Coordinates from ORCA-job orca_input E -105.779330858976
  Br      3.091611     -1.886808      0.377666
  C       0.664569     -0.522990      0.697209
  C       1.831022     -0.510515     -0.211566
  C       2.476511      0.841945     -0.183673
  O       2.771756      1.236321      1.073541
  C      -0.643666     -0.356903      0.318247
  C      -1.058555     -0.244619     -1.036006
  C      -2.377334     -0.050345     -1.324435
  C      -3.305196      0.034055     -0.284005
  C      -2.929307     -0.072356      1.049782
  C      -1.611213     -0.272863      1.354846
  C       2.684494      1.534968     -1.292805
  H       0.881792     -0.587840      1.756260
  H       1.576302     -0.767654     -1.230169
  H      -0.338554     -0.314766     -1.836975
  H      -2.708372      0.034908     -2.348696
  H      -4.349337      0.183721     -0.525810
  H      -3.672118     -0.006796      1.830624
  H      -1.285233     -0.373421      2.380022
  H       2.402510      1.124816     -2.250266
  H       3.178607      2.108628      1.071500
  H       3.141619      2.515020     -1.259110
  Br     -0.421907     -3.646507      1.873819
23
Coordinates from ORCA-job orca_input E -105.779333669501
  Br      3.093790     -1.885267      0.381542
  C       0.664918     -0.523118      0.697687
  C       1.832010     -0.511265     -0.210503
  C       2.475633      0.842110     -0.184588
  O       2.769013      1.239297      1.072166
  C      -0.643203     -0.356567      0.319180
  C      -1.057096     -0.242411     -1.034892
  C      -2.375848     -0.047698     -1.323506
  C      -3.304404      0.035048     -0.283500
  C      -2.929315     -0.073336      1.050298
  C      -1.611374     -0.274219      1.355418
  C       2.683980      1.533200     -1.294872
  H       0.881489     -0.588144      1.756897
  H       1.578028     -0.770625     -1.228703
  H      -0.336721     -0.310588     -1.835656
  H      -2.706446      0.038754     -2.347813
  H      -4.348482      0.184507     -0.525722
  H      -3.672494     -0.009202      1.830901
  H      -1.286084     -0.375905      2.380717
  H       2.403609      1.120753     -2.251825
  H       3.174944      2.112027      1.068752
  H       3.139800      2.513908     -1.262665
  Br     -0.425748     -3.651258      1.870685
23
Coordinates from ORCA-job orca_input E -105.779333533395
  Br      3.093709     -1.882709      0.385692
  C       0.664124     -0.521864      0.696290
  C       1.832251     -0.510219     -0.210761
  C       2.476399      0.842894     -0.185905
  O       2.767347      1.242091      1.070731
  C      -0.644295     -0.356195      0.319059
  C      -1.057616     -0.238800     -1.034481
  C      -2.376611     -0.044359     -1.322759
  C      -3.305705      0.034923     -0.282986
  C      -2.930963     -0.076245      1.050698
  C      -1.612998     -0.277008      1.355075
  C       2.687927      1.531632     -1.297087
  H       0.880235     -0.587325      1.755652
  H       1.579714     -0.771516     -1.228881
  H      -0.337075     -0.304478     -1.835035
  H      -2.706945      0.045104     -2.346897
  H      -4.349736      0.184525     -0.525279
  H      -3.674240     -0.014651      1.831398
  H      -1.288093     -0.380017      2.380377
  H       2.409646      1.117373     -2.253868
  H       3.174148      2.114417      1.066449
  H       3.144114      2.512214     -1.265816
  Br     -0.425337     -3.659788      1.878335
23
Coordinates from ORCA-job orca_input E -105.779332099990
  Br      3.089263     -1.885085      0.380685
  C       0.663775     -0.519246      0.695134
  C       1.831348     -0.507738     -0.212631
  C       2.479236      0.843503     -0.184905
  O       2.773193      1.238561      1.072331
  C      -0.644974     -0.356071      0.318586
  C      -1.059223     -0.243301     -1.035152
  C      -2.378610     -0.050372     -1.322811
  C      -3.306939      0.031517     -0.282437
  C      -2.931261     -0.075802      1.051347
  C      -1.612967     -0.274833      1.355233
  C       2.690750      1.534746     -1.294534
  H       0.880503     -0.582779      1.754459
  H       1.578138     -0.765855     -1.231395
  H      -0.339347     -0.310871     -1.836255
  H      -2.709948      0.035372     -2.346946
  H      -4.351269      0.179615     -0.524402
  H      -3.674031     -0.012424      1.832393
  H      -1.287431     -0.375239      2.380580
  H       2.409775      1.123885     -2.251994
  H       3.181718      2.110085      1.069851
  H       3.149674      2.513980     -1.261316
  Br     -0.431375     -3.651647      1.874178
23
Coordinates from ORCA-job orca_input E -105.779331897353
  Br      3.100083     -1.882508      0.385864
  C       0.665492     -0.528993      0.696391
  C       1.833741     -0.515003     -0.211024
  C       2.471017      0.841508     -0.187818
  O       2.759601      1.243516      1.068500
  C      -0.642034     -0.359347      0.318565
  C      -1.052533     -0.232990     -1.035490
  C      -2.370681     -0.033317     -1.324169
  C      -3.301112      0.041637     -0.285030
  C      -2.928812     -0.078741      1.048694
  C      -1.611764     -0.283834      1.354098
  C       2.678959      1.530231     -1.299645
  H       0.879777     -0.599660      1.755727
  H       1.582090     -0.778680     -1.228842
  H      -0.331074     -0.294070     -1.836037
  H      -2.699517      0.062651     -2.348206
  H      -4.344510      0.194653     -0.527954
  H      -3.673144     -0.019780      1.828597
  H      -1.289188     -0.394402      2.379321
  H       2.402848      1.113601     -2.256028
  H       3.162165      2.117800      1.063446
  H       3.130275      2.513086     -1.269334
  Br     -0.421678     -3.657359      1.910374
23
Coordinates from ORCA-job orca_input E -105.779329096286
  Br      3.088683     -1.884570      0.379680
  C       0.662774     -0.520568      0.692592
  C       1.830782     -0.507397     -0.214593
  C       2.479057      0.843600     -0.186181
  O       2.770519      1.239033      1.071484
  C      -0.646110     -0.357291      0.316591
  C      -1.060033     -0.238602     -1.036721
  C      -2.379221     -0.043789     -1.323945
  C      -3.307843      0.033884     -0.283559
  C      -2.932623     -0.079277      1.049885
  C      -1.614500     -0.280013      1.353243
  C       2.693161      1.534205     -1.295709
  H       0.879217     -0.587393      1.751802
  H       1.578268     -0.765453     -1.233550
  H      -0.339969     -0.302771     -1.837827
  H      -2.710201      0.046695     -2.347792
  H      -4.352061      0.183255     -0.525268
  H      -3.675591     -0.019122      1.830994
  H      -1.289383     -0.384495      2.378307
  H       2.414084      1.122914     -2.253541
  H       3.179613      2.110290      1.069463
  H       3.152462      2.513248     -1.262060
  Br     -0.421085     -3.656382      1.906706
23
Coordinates from ORCA-job orca_input E -105.779320959392
  Br      3.091974     -1.881444      0.389259
  C       0.661978     -0.521425      0.692821
  C       1.831881     -0.509531     -0.212421
  C       2.476769      0.843109     -0.188947
  O       2.764314      1.244646      1.067679
  C      -0.646154     -0.355625      0.316373
  C      -1.057907     -0.226101     -1.036982
  C      -2.377264     -0.031080     -1.323705
  C      -3.307562      0.035919     -0.283706
  C      -2.934164     -0.086816      1.049422
  C      -1.616096     -0.286765      1.352635
  C       2.693935      1.528309     -1.301222
  H       0.876180     -0.595913      1.751934
  H       1.581091     -0.773092     -1.230313
  H      -0.337050     -0.282429     -1.838062
  H      -2.707269      0.067913     -2.347079
  H      -4.351849      0.184374     -0.525720
  H      -3.678423     -0.034708      1.829913
  H      -1.292747     -0.399142      2.377386
  H       2.419267      1.111462     -2.257932
  H       3.173164      2.116010      1.062751
  H       3.150519      2.508748     -1.270862
  Br     -0.414587     -3.656420      1.926779
23
Coordinates from ORCA-job orca_input E -105.779322366495
  Br      3.086958     -1.883326      0.386855
  C       0.661933     -0.516170      0.693143
  C       1.831311     -0.506143     -0.212505
  C       2.480064      0.844544     -0.187360
  O       2.771534      1.242862      1.069369
  C      -0.646806     -0.354106      0.317435
  C      -1.059755     -0.232236     -1.036266
  C      -2.379831     -0.040967     -1.322676
  C      -3.309295      0.030511     -0.282176
  C      -2.934580     -0.084601      1.051335
  C      -1.616070     -0.281440      1.354091
  C       2.697813      1.530815     -1.298879
  H       0.877133     -0.586344      1.752377
  H       1.579517     -0.767228     -1.230721
  H      -0.339508     -0.292488     -1.837608
  H      -2.710934      0.052310     -2.346227
  H      -4.353948      0.176501     -0.524066
  H      -3.678119     -0.029165      1.832284
  H      -1.291774     -0.387914      2.379212
  H       2.420223      1.116459     -2.255831
  H       3.182843      2.113073      1.065173
  H       3.157374      2.509841     -1.267646
  Br     -0.426081     -3.654788      1.900687
23
Coordinates from ORCA-job orca_input E -105.779324324196
  Br      3.074843     -1.890049      0.367127
  C       0.661258     -0.511674      0.687791
  C       1.828352     -0.498951     -0.220454
  C       2.487030      0.846608     -0.184724
  O       2.785275      1.232034      1.074360
  C      -0.648919     -0.356933      0.314685
  C      -1.064640     -0.246108     -1.038837
  C      -2.385146     -0.056168     -1.324048
  C      -3.312257      0.024393     -0.282265
  C      -2.934934     -0.081763      1.051312
  C      -1.616005     -0.278105      1.352840
  C       2.704496      1.541687     -1.290848
  H       0.879217     -0.574105      1.747005
  H       1.574492     -0.749148     -1.241002
  H      -0.346042     -0.312813     -1.841086
  H      -2.718411      0.028809     -2.347625
  H      -4.357137      0.170535     -0.523102
  H      -3.676717     -0.019620      1.833388
  H      -1.289646     -0.377115      2.378055
  H       2.419966      1.138095     -2.250355
  H       3.200577      2.100354      1.076469
  H       3.171634      2.516861     -1.252766
  Br     -0.437287     -3.646823      1.914081
23
Coordinates from ORCA-job orca_input E -105.779330111857
  Br      3.067344     -1.895339      0.351890
  C       0.662124     -0.508453      0.685688
  C       1.826851     -0.494286     -0.224765
  C       2.491778      0.847913     -0.181097
  O       2.797011      1.222949      1.079404
  C      -0.649446     -0.359016      0.313400
  C      -1.068694     -0.261890     -1.039942
  C      -2.389169     -0.072769     -1.325062
  C      -3.313597      0.020508     -0.282440
  C      -2.933373     -0.074016      1.051228
  C      -1.614166     -0.270795      1.352400
  C       2.705637      1.551073     -1.282833
  H       0.883179     -0.561653      1.744854
  H       1.570615     -0.735823     -1.246755
  H      -0.351652     -0.337994     -1.842531
  H      -2.724277      0.001830     -2.348847
  H      -4.358580      0.167252     -0.522400
  H      -3.673322     -0.002853      1.834225
  H      -1.285332     -0.360322      2.377709
  H       2.414095      1.156404     -2.243940
  H       3.214168      2.090347      1.086150
  H       3.177361      2.523808     -1.239677
  Br     -0.448556     -3.646873      1.903343
23
Coordinates from ORCA-job orca_input E -105.779330778120
  Br      3.074087     -1.893832      0.355906
  C       0.663637     -0.513295      0.687854
  C       1.828431     -0.498617     -0.222525
  C       2.487615      0.846608     -0.181736
  O       2.791567      1.225142      1.078079
  C      -0.647270     -0.359946      0.314198
  C      -1.065271     -0.259164     -1.039333
  C      -2.385104     -0.067388     -1.325438
  C      -3.310319      0.025093     -0.283475
  C      -2.931324     -0.072696      1.050257
  C      -1.612607     -0.271964      1.352410
  C       2.697507      1.549112     -1.284623
  H       0.883908     -0.568499      1.747066
  H       1.572507     -0.743412     -1.243855
  H      -0.347487     -0.334519     -1.841411
  H      -2.719080      0.009844     -2.349398
  H      -4.354864      0.174042     -0.523985
  H      -3.671828     -0.001757      1.832749
  H      -1.284632     -0.364058      2.377759
  H       2.407156      1.151714     -2.244958
  H       3.205289      2.094195      1.083198
  H       3.164781      2.524058     -1.243186
  Br     -0.446697     -3.650662      1.904446
23
Coordinates from ORCA-job orca_input E -105.779330529384
  Br      3.072517     -1.892372      0.360069
  C       0.663500     -0.509544      0.686613
  C       1.829511     -0.496280     -0.222532
  C       2.489232      0.848601     -0.183271
  O       2.794971      1.227552      1.075969
  C      -0.647517     -0.358726      0.314334
  C      -1.064384     -0.254940     -1.039349
  C      -2.384965     -0.065465     -1.324595
  C      -3.311065      0.022181     -0.282538
  C      -2.932737     -0.077691      1.051262
  C      -1.613817     -0.274465      1.352426
  C       2.700742      1.549114     -1.287135
  H       0.882649     -0.568265      1.745903
  H       1.574652     -0.742998     -1.243610
  H      -0.346396     -0.327737     -1.841415
  H      -2.718992      0.014639     -2.348325
  H      -4.355827      0.169218     -0.523303
  H      -3.673574     -0.010317      1.833767
  H      -1.286714     -0.367966      2.377942
  H       2.410461      1.150507     -2.246994
  H       3.210683      2.095693      1.079990
  H       3.168061      2.524107     -1.246905
  Br     -0.460989     -3.654845      1.911697
23
Coordinates from ORCA-job orca_input E -105.779331630098
  Br      3.071979     -1.893154      0.360356
  C       0.663524     -0.508693      0.688523
  C       1.829033     -0.496706     -0.220984
  C       2.489487      0.847872     -0.181877
  O       2.795868      1.226714      1.077240
  C      -0.647404     -0.357434      0.315230
  C      -1.065274     -0.258101     -1.038609
  C      -2.385842     -0.069808     -1.324233
  C      -3.311349      0.021195     -0.282092
  C      -2.932223     -0.074297      1.051801
  C      -1.613115     -0.270087      1.353445
  C       2.700122      1.548722     -1.285693
  H       0.883393     -0.564227      1.747804
  H       1.573267     -0.742965     -1.241917
  H      -0.347521     -0.333102     -1.840794
  H      -2.720255      0.006235     -2.348136
  H      -4.356285      0.167148     -0.522742
  H      -3.672794     -0.004445      1.834347
  H      -1.285234     -0.360444      2.379014
  H       2.408821      1.150565     -2.245429
  H       3.211572      2.094838      1.081147
  H       3.168251      2.523330     -1.245584
  Br     -0.458022     -3.653155      1.889181
23
Coordinates from ORCA-job orca_input E -105.779331312578
  Br      3.085276     -1.887403      0.377162
  C       0.664815     -0.516034      0.693470
  C       1.832011     -0.505172     -0.214224
  C       2.481807      0.845027     -0.184746
  O       2.779931      1.236720      1.072543
  C      -0.644442     -0.356301      0.317203
  C      -1.059661     -0.244882     -1.036825
  C      -2.379098     -0.052409     -1.323897
  C      -3.306780      0.029938     -0.282929
  C      -2.930520     -0.077047      1.050852
  C      -1.612101     -0.276017      1.354233
  C       2.690486      1.538745     -1.293387
  H       0.882411     -0.577535      1.752853
  H       1.577841     -0.761406     -1.233105
  H      -0.340209     -0.312229     -1.838399
  H      -2.711156      0.032502     -2.347877
  H      -4.351263      0.177684     -0.524515
  H      -3.672963     -0.013827      1.832176
  H      -1.286236     -0.375241      2.379615
  H       2.406205      1.130342     -2.250924
  H       3.189808      2.107646      1.070951
  H       3.150414      2.517475     -1.259445
  Br     -0.446576     -3.660576      1.889216
23
Coordinates from ORCA-job orca_input E -105.779332020495
  Br      3.088749     -1.885711      0.379398
  C       0.665245     -0.518599      0.694877
  C       1.832333     -0.507067     -0.213131
  C       2.479690      0.844435     -0.184995
  O       2.775637      1.238370      1.072127
  C      -0.643593     -0.356611      0.318057
  C      -1.058384     -0.244368     -1.035893
  C      -2.377629     -0.051215     -1.323464
  C      -3.305625      0.031604     -0.282859
  C      -2.929713     -0.075484      1.050878
  C      -1.611382     -0.274964      1.354621
  C       2.688082      1.537211     -1.294251
  H       0.882492     -0.581585      1.754182
  H       1.578522     -0.764862     -1.231818
  H      -0.338589     -0.312500     -1.837053
  H      -2.709152      0.034533     -2.347537
  H      -4.349865      0.180643     -0.524665
  H      -3.672237     -0.011348      1.832071
  H      -1.285689     -0.374943      2.379956
  H       2.405476      1.127156     -2.251575
  H       3.183731      2.110102      1.069868
  H       3.145946      2.516931     -1.260968
  Br     -0.444046     -3.661731      1.882172
23
Coordinates from ORCA-job orca_input E -105.779331915816
  Br      3.086135     -1.886511      0.376965
  C       0.665046     -0.516730      0.694005
  C       1.831832     -0.505141     -0.214306
  C       2.481503      0.845161     -0.184506
  O       2.778236      1.237174      1.072997
  C      -0.644252     -0.356787      0.317933
  C      -1.059811     -0.247616     -1.035951
  C      -2.379148     -0.054955     -1.323271
  C      -3.306520      0.030068     -0.282382
  C      -2.929943     -0.074763      1.051427
  C      -1.611532     -0.274160      1.354971
  C       2.690726      1.538963     -1.292979
  H       0.882953     -0.576844      1.753384
  H       1.577847     -0.761179     -1.233368
  H      -0.340464     -0.316977     -1.837364
  H      -2.711276      0.028235     -2.347364
  H      -4.350894      0.178522     -0.523972
  H      -3.672095     -0.009323      1.832849
  H      -1.285264     -0.371753      2.380383
  H       2.407130      1.130582     -2.250727
  H       3.187324      2.108434      1.071663
  H       3.150611      2.517702     -1.258672
  Br     -0.448142     -3.662103      1.878285
23
Coordinates from ORCA-job orca_input E -105.779332025984
  Br      3.086656     -1.886212      0.377559
  C       0.664930     -0.517113      0.694218
  C       1.831788     -0.505413     -0.214044
  C       2.481019      0.845106     -0.184717
  O       2.777191      1.237792      1.072726
  C      -0.644273     -0.356720      0.318047
  C      -1.059590     -0.246560     -1.035852
  C      -2.378962     -0.053959     -1.323196
  C      -3.306519      0.030265     -0.282367
  C      -2.930112     -0.075197      1.051412
  C      -1.611708     -0.274411      1.354966
  C       2.690872      1.538253     -1.293471
  H       0.882635     -0.578445      1.753555
  H       1.577882     -0.761834     -1.233035
  H      -0.340101     -0.315613     -1.837168
  H      -2.710934      0.030089     -2.347268
  H      -4.350874      0.178758     -0.524003
  H      -3.672364     -0.010220      1.832785
  H      -1.285587     -0.372772      2.380339
  H       2.407906      1.129277     -2.251149
  H       3.186173      2.109111      1.071144
  H       3.150466      2.517136     -1.259420
  Br     -0.446496     -3.661321      1.878941
