23
Coordinates from ORCA-job orca_input_reactant E -105.781869648704
  Br          2.44028764721733     -1.87045562433420      0.14818243833284
  C           0.60404468488652      0.00469921931569      0.58171367119082
  C           1.73886095071273     -0.09297876861446     -0.34900419744399
  C           2.77119838529945      0.96319884136915     -0.15014013718473
  O           3.14053047097440      1.08723398935688      1.14181988475893
  C          -0.72472308816039     -0.17839495319988      0.29113948174102
  C          -1.20400890247784     -0.48322659357769     -1.01108282316027
  C          -2.54494813884467     -0.60823028569506     -1.22404763728062
  C          -3.43254529841110     -0.43376037273685     -0.16013390078444
  C          -2.99335336303128     -0.14392211703029      1.12570341177135
  C          -1.65073139187700     -0.02628737663212      1.35741217751510
  C           3.22269345975814      1.68476291574904     -1.16556650674166
  H           0.87080804608542      0.24453564458309      1.60482696042157
  H           1.46156425257866     -0.16388272595069     -1.39103076102272
  H          -0.51444227849090     -0.61749638852417     -1.83024702340354
  H          -2.92431046162332     -0.84192157569928     -2.20763787651330
  H          -4.49423518793456     -0.53356741558834     -0.34376108910750
  H          -3.70440873561664     -0.02498450641653      1.92934217350709
  H          -1.27517271142292      0.18946380794505      2.34831138007705
  H           2.85612183084271      1.50274544099786     -2.16410990847797
  H           3.79612815209991      1.78400126044948      1.24523427458501
  H           3.96108489930227      2.46104267360922     -1.01538584974801
  Br         -1.40044322186694     -3.90254508937589      1.23846185696797
