23
Coordinates from ORCA-job orca_input_NEB-CI_converged E -105.776925947338
  Br          3.14322855927392     -1.87411551965611      0.30166725277105
  C           0.68430263404748     -0.55803493389756      0.66943036121401
  C           1.84298885809666     -0.51849784078893     -0.24128624531496
  C           2.44267697739243      0.85426675219705     -0.11585953730995
  O           2.67188421952663      1.18207976727248      1.17607001219314
  C          -0.63279464134347     -0.40343668620467      0.31430967882454
  C          -1.12112329097353     -0.57662308870692     -1.00395462354821
  C          -2.44499546136956     -0.36397268339114     -1.25963369397730
  C          -3.29138427681924      0.04727686386607     -0.22769111656272
  C          -2.83435229094959      0.22440907297478      1.07159776098643
  C          -1.51956904645199     -0.02883056645513      1.35139874469204
  C           2.67330380001063      1.62022906252979     -1.16937413664822
  H           0.92517731023751     -0.52884987562375      1.72546540498968
  H           1.59643116608697     -0.71881719760377     -1.27541407600600
  H          -0.46379488139520     -0.92773187132303     -1.78585508944499
  H          -2.84391573751368     -0.51698297108800     -2.25133230528098
  H          -4.33564430021265      0.22385013971831     -0.44591555433256
  H          -3.50971730960353      0.54371912924695      1.85176452629496
  H          -1.12676443358471      0.08350963537047      2.35204267246141
  H           2.44342358759461      1.26614399097463     -2.16131169556105
  H           3.03911919378947      2.06864380962470      1.24759699493834
  H           3.10339942079834      2.60657325593840     -1.05278814200967
  Br         -0.44188005663750     -3.70480824497459      0.92907280663101
