23
Coordinates from ORCA-job orca_input E -105.779332025984
  Br          3.08665587592994     -1.88621153557792      0.37755947672096
  C           0.66493037051204     -0.51711332262550      0.69421756271996
  C           1.83178806527835     -0.50541253208246     -0.21404430914696
  C           2.48101879463566      0.84510581883731     -0.18471681675958
  O           2.77719083836195      1.23779246562337      1.07272551996435
  C          -0.64427275781695     -0.35672044221419      0.31804663579159
  C          -1.05958980029675     -0.24655951358349     -1.03585211310913
  C          -2.37896163728894     -0.05395897596789     -1.32319615046022
  C          -3.30651850212368      0.03026530600150     -0.28236718333530
  C          -2.93011222445976     -0.07519671723264      1.05141196092131
  C          -1.61170809547948     -0.27441142916951      1.35496572178696
  C           2.69087180919162      1.53825349640129     -1.29347054690598
  H           0.88263493575550     -0.57844465289270      1.75355489205093
  H           1.57788233356924     -0.76183370272253     -1.23303489955398
  H          -0.34010092351571     -0.31561260100120     -1.83716767908304
  H          -2.71093396146106      0.03008902048268     -2.34726776447740
  H          -4.35087401763826      0.17875801621673     -0.52400338977905
  H          -3.67236374210962     -0.01022009599344      1.83278479600793
  H          -1.28558708232641     -0.37277249316122      2.38033868469004
  H           2.40790579328261      1.12927731710201     -2.25114884939268
  H           3.18617345749912      2.10911110399864      1.07114393779863
  H           3.15046641118806      2.51713632246609     -1.25942036468347
  Br         -0.44649594068747     -3.66132085290491      1.87894087823413
