23
Coordinates from ORCA-job orca_input_product E -105.831974448715
  Br          1.77103901531033     -1.40817229605438     -0.07627057857719
  C          -0.14859331492300      0.65606263868366      0.53290098619436
  C           1.04211548246757      0.39656366148320     -0.37667247337262
  C           2.13857636614957      1.38578979267625     -0.15560622140947
  O           2.49882477282887      1.47074199043802      1.14585567540546
  C          -0.64514710982945      2.06663606234671      0.42513639761131
  C          -1.05643383112059      2.60290589914169     -0.78920581493909
  C          -1.48040916781264      3.91558097475144     -0.86313198232181
  C          -1.49929046062685      4.70731100150073      0.27616631764485
  C          -1.09365301010972      4.17722244024680      1.48782953952880
  C          -0.66768534012561      2.86042320329918      1.56092610299686
  C           2.66604268517145      2.09668745839974     -1.14208091747353
  H           0.11114437872256      0.42951027077641      1.56070584815325
  H           0.75183955138508      0.40622418290382     -1.42086275498509
  H          -1.05602317427540      1.99059147861776     -1.68128924115143
  H          -1.79952364941813      4.32387921369391     -1.81246132424208
  H          -1.83291259169870      5.73457857474243      0.21745608420701
  H          -1.10801181852885      4.78749216882973      2.38068622818442
  H          -0.34724430954279      2.44780087887359      2.50842978122835
  H           2.31052315952286      1.96579312992170     -2.15260107082909
  H           3.20146419568543      2.11802853499767      1.25803803350195
  H           3.45273288467739      2.81619474789999     -0.95643123403321
  Br         -1.61546471390942     -0.59220600817011      0.12014261867798
