  22
        -34.21827298
 Br         1.3309660461       -1.3732726667        0.0679555416
 C         -0.1482782103        0.6268157964        0.4389132924
 C          0.9699475442        0.6088030971       -0.5046348428
 C          2.1486877884        1.4573757192       -0.1986291706
 O          2.3242981776        1.6611848643        1.1291407772
 C         -1.5022512333        0.4237105251        0.1640473283
 C         -2.0083478430        0.1755470491       -1.1411913842
 C         -3.3584993383        0.0209033811       -1.3405485910
 C         -4.2432636051        0.0991588969       -0.2637823382
 C         -3.7713663054        0.3338428167        1.0267994871
 C         -2.4236137117        0.4872793807        1.2472354976
 C          2.9232699014        1.9446088141       -1.1657593870
 H          0.1360623005        0.8547197618        1.4626639384
 H          0.7420014857        0.5587501430       -1.5647243601
 H         -1.3343516982        0.1041912477       -1.9799663407
 H         -3.7402855969       -0.1653894221       -2.3328219755
 H         -5.3024995792       -0.0282192650       -0.4322934285
 H         -4.4658460056        0.3884305220        1.8511679984
 H         -2.0501221373        0.6642007453        2.2447741405
 H          2.7356126004        1.7337823018       -2.2009735295
 H          3.1175915900        2.1869794973        1.2935511524
 H          3.7634912303        2.5805453528       -0.9469003408
