23
orca_input_MEP_trj
Br      2.53261     -1.91586       0.03838
 C      0.54509     -0.12436       0.57767
 C      1.68908     -0.18291      -0.34916
 C      2.68577      0.90065      -0.10880
 O      3.00393      1.02184       1.19666
 C     -0.78968     -0.20475       0.25922
 C     -1.26645     -0.44690      -1.05707
 C     -2.60930     -0.47928      -1.29543
 C     -3.50310     -0.26338      -0.24514
 C     -3.06779     -0.01810       1.05261
 C     -1.72481      0.00049       1.31070
 C      3.18139      1.61082      -1.11060
 H      0.80280      0.04182       1.61730
 H      1.41013     -0.21946      -1.39200
 H     -0.57331     -0.61582      -1.86632
 H     -2.98585     -0.66935      -2.28959
 H     -4.56615     -0.28873      -0.44829
 H     -3.78523      0.14853       1.84268
 H     -1.35740      0.18750       2.31050
 H      2.85313      1.41535      -2.11925
 H      3.68297      1.69097       1.32492
 H      3.92917      2.37253      -0.94026
Br     -0.08700     -3.96157       1.69127
