22
Coordinates from ORCA-job orca_input E -92.188058544229
  Br          1.56773559032761     -1.43431924511639      0.05963162627061
  C          -0.13245871091054      0.54080435784746      0.48980489526818
  C           1.01160154841791      0.40267741378500     -0.42175796248805
  C           2.11193892813548      1.37484275005426     -0.17389047642081
  O           2.44923052917660      1.45191124233940      1.13027607927136
  C          -1.46539350858166      0.40404316671561      0.17688425392107
  C          -1.93241800539244      0.12836036827908     -1.13524348452125
  C          -3.27283617662131      0.02029824065283     -1.36600225981817
  C          -4.17069171978776      0.18332442700177     -0.30952706715446
  C          -3.74223882020479      0.45278650524083      0.98550817970762
  C          -2.40130174424708      0.56052921557660      1.23306387736939
  C           2.64713660011703      2.07194036048025     -1.16505644322289
  H           0.12643334492225      0.76493262022224      1.51883331990033
  H           0.75470204315899      0.37121331092327     -1.47099302246056
  H          -1.23501333822813      0.00055661564002     -1.94902189646138
  H          -3.64268667542702     -0.18916263644940     -2.35872108644227
  H          -5.23127357012672      0.09663144374704     -0.50606324311056
  H          -4.46153657788348      0.57306235452694      1.78178698094374
  H          -2.03596228129948      0.76661355539693      2.23000084735960
  H           2.29910618766909      1.93002816229998     -2.17664703263715
  H           3.16196400533425      2.08497359365530      1.26302512744178
  H           3.43716575175122      2.78790073578099     -0.98186774771612
