22
Coordinates from ORCA-job orca_input E -3036.948689203777
  Br         -1.27850456784460      3.92238978667493      0.82040411647338
  C          -0.49031073240410      1.38369422058343      0.55566201530901
  C          -0.40427353090624      2.29735803184165      1.68822181792609
  C           0.98219106777564      2.59955817458591      2.12511249481507
  O           1.84258175840943      3.15325388616745      1.23881078736496
  C          -1.42000175850447      0.37361149819773      0.36876220359909
  C          -1.29534091164851     -0.42582831987728     -0.80295956703409
  C          -2.17860302697905     -1.44811636587029     -1.03855600769408
  C          -3.20298374483176     -1.69348498259818     -0.12404140441124
  C          -3.34937274995703     -0.91797119150380      1.03134136839713
  C          -2.47386339170379      0.10381515437078      1.28503807558649
  C           1.38765784857469      2.21849089461130      3.34003390437691
  H           0.27539490202242      1.50343026000886     -0.20136297762802
  H          -1.03892155078184      2.05750922334393      2.52692873101954
  H          -0.49554592686198     -0.21451021465477     -1.49806051682676
  H          -2.08595760930319     -2.05841954024162     -1.92430989879568
  H          -3.89976620152712     -2.49861002007827     -0.31140912672182
  H          -4.15385977817651     -1.12912531415465      1.71978602782496
  H          -2.59386187079054      0.70352631508307      2.17351988432985
  H           0.70918714181970      1.72385825662663      4.01552779747143
  H           1.36390273764055      3.69744208287443      0.59372858062285
  H           2.40774189597832      2.37671816400876      3.65649169399493
