25
Coordinates from ORCA-job orca_input E -132.577575426949
  Br     -0.824992      2.845167     -0.093008
  C       0.265480      0.533662     -0.687188
  C       0.420217      1.400187      0.493034
  C       1.766684      1.996240      0.713924
  O       2.398367      2.516975     -0.372545
  C      -0.745505     -0.391920     -0.901524
  C      -0.915243     -0.859228     -2.221617
  C      -1.943304     -1.717282     -2.518719
  C      -2.773395     -2.156148     -1.496753
  C      -2.595643     -1.738694     -0.178648
  C      -1.598633     -0.853856      0.123783
  C       2.332661      1.980095      1.908794
  H       0.935805      0.746227     -1.514157
  H      -0.000543      1.002986      1.407930
  H      -0.242713     -0.508857     -2.993867
  H      -2.099369     -2.054113     -3.533179
  H      -3.576412     -2.841882     -1.727594
  H      -3.242200     -2.117177      0.598082
  H      -1.449297     -0.534829      1.144657
  H       1.837480      1.501355      2.739032
  H       1.794986      3.038555     -0.913274
  H       3.309987      2.417032      2.062448
  Br      2.022564     -2.037418      0.127119
  Br      2.304948     -1.455385      2.772300
  Br      2.618068     -0.711692      5.060972
25
Coordinates from ORCA-job orca_input E -132.577802212803
  Br     -0.825678      2.848256     -0.088844
  C       0.262868      0.536249     -0.689097
  C       0.419745      1.401207      0.492187
  C       1.767185      1.995458      0.712391
  O       2.399816      2.513434     -0.374838
  C      -0.748830     -0.389233     -0.902848
  C      -0.917084     -0.860041     -2.221716
  C      -1.942493     -1.722035     -2.516926
  C      -2.773101     -2.159008     -1.494567
  C      -2.598051     -1.736133     -0.177833
  C      -1.602659     -0.848731      0.122760
  C       2.334148      1.978246      1.906838
  H       0.931902      0.749676     -1.516778
  H       0.000053      1.002717      1.406933
  H      -0.243826     -0.511870     -2.994158
  H      -2.096131     -2.063348     -3.530239
  H      -3.573825     -2.848111     -1.723790
  H      -3.245578     -2.112279      0.599398
  H      -1.455607     -0.525554      1.142659
  H       1.838867      1.500411      2.737819
  H       1.797729      3.036212     -0.915827
  H       3.311964      2.414115      2.059780
  Br      2.042833     -2.009721      0.120160
  Br      2.309527     -1.455747      2.775542
  Br      2.606225     -0.734170      5.070994
25
Coordinates from ORCA-job orca_input E -132.578022269193
  Br     -0.825962      2.850468     -0.085056
  C       0.261308      0.537962     -0.689906
  C       0.419714      1.401966      0.492004
  C       1.767925      1.994610      0.711797
  O       2.401635      2.510286     -0.375899
  C      -0.751198     -0.387251     -0.903251
  C      -0.916820     -0.862798     -2.220656
  C      -1.939692     -1.728442     -2.514260
  C      -2.772093     -2.162310     -1.491994
  C      -2.601357     -1.732452     -0.176945
  C      -1.607349     -0.842835      0.122079
  C       2.334633      1.978351      1.906375
  H       0.928043      0.753503     -1.518886
  H       0.000722      1.002750      1.406665
  H      -0.242743     -0.516788     -2.993196
  H      -2.089669     -2.075549     -3.526124
  H      -3.571061     -2.854046     -1.719929
  H      -3.250978     -2.105117      0.600343
  H      -1.464038     -0.514361      1.140776
  H       1.838997      1.502000      2.738092
  H       1.800936      3.034070     -0.917424
  H       3.313468      2.412068      2.058395
  Br      2.054849     -1.981940      0.108555
  Br      2.312424     -1.455502      2.773009
  Br      2.598307     -0.758645      5.075436
25
Coordinates from ORCA-job orca_input E -132.578261390768
  Br     -0.826342      2.854571     -0.079855
  C       0.258714      0.541553     -0.690958
  C       0.419603      1.404151      0.491814
  C       1.768904      1.994742      0.710623
  O       2.403656      2.507287     -0.377946
  C      -0.754197     -0.383765     -0.903484
  C      -0.916833     -0.865056     -2.219165
  C      -1.935994     -1.735861     -2.510510
  C      -2.770033     -2.166482     -1.488143
  C      -2.603579     -1.729273     -0.174953
  C      -1.611680     -0.836490      0.122000
  C       2.336699      1.977614      1.904772
  H       0.923790      0.758549     -1.521060
  H       0.001817      1.004089      1.406518
  H      -0.241506     -0.521994     -2.991779
  H      -2.082623     -2.088780     -3.520808
  H      -3.566192     -2.862213     -1.714213
  H      -3.255086     -2.098479      0.602495
  H      -1.471607     -0.503145      1.139520
  H       1.841268      1.502391      2.737548
  H       1.804855      3.033179     -0.919480
  H       3.315972      2.410588      2.055738
  Br      2.067852     -1.953849      0.095767
  Br      2.311081     -1.456531      2.766991
  Br      2.581461     -0.786796      5.078567
25
Coordinates from ORCA-job orca_input E -132.578506693565
  Br     -0.826288      2.859923     -0.074707
  C       0.256260      0.546338     -0.692354
  C       0.419962      1.407542      0.491156
  C       1.770586      1.995741      0.708577
  O       2.405293      2.507030     -0.380600
  C      -0.755672     -0.380355     -0.902914
  C      -0.915919     -0.867840     -2.216753
  C      -1.931352     -1.743910     -2.505095
  C      -2.765904     -2.171839     -1.481909
  C      -2.603827     -1.726269     -0.170944
  C      -1.614291     -0.829888      0.123170
  C       2.339518      1.978268      1.902263
  H       0.918282      0.765651     -1.524130
  H       0.003591      1.006696      1.406037
  H      -0.241124     -0.526070     -2.990255
  H      -2.074214     -2.104060     -3.513329
  H      -3.559867     -2.870964     -1.705709
  H      -3.256262     -2.092641      0.607131
  H      -1.478116     -0.490200      1.139076
  H       1.844838      1.503679      2.736105
  H       1.807736      3.035303     -0.921153
  H       3.320325      2.408333      2.051267
  Br      2.081375     -1.928900      0.081112
  Br      2.303200     -1.460906      2.754995
  Br      2.551868     -0.820662      5.078963
25
Coordinates from ORCA-job orca_input E -132.578748008426
  Br     -0.826053      2.870196     -0.069148
  C       0.251681      0.555325     -0.694549
  C       0.419313      1.414525      0.489908
  C       1.772094      1.998516      0.705599
  O       2.407503      2.507020     -0.384437
  C      -0.757614     -0.374343     -0.901924
  C      -0.914901     -0.869676     -2.213505
  C      -1.924667     -1.753456     -2.497580
  C      -2.759242     -2.178469     -1.473053
  C      -2.601050     -1.724346     -0.164479
  C      -1.615603     -0.822238      0.125725
  C       2.343597      1.976787      1.897990
  H       0.911231      0.775974     -1.527804
  H       0.004402      1.012834      1.405015
  H      -0.239909     -0.530560     -2.987853
  H      -2.064744     -2.120402     -3.503691
  H      -3.548657     -2.883995     -1.693328
  H      -3.254227     -2.087678      0.614450
  H      -1.482183     -0.476838      1.140014
  H       1.849407      1.502647      2.732377
  H       1.812343      3.039440     -0.923507
  H       3.325412      2.404906      2.045686
  Br      2.093643     -1.907427      0.064999
  Br      2.288337     -1.467772      2.736546
  Br      2.509887     -0.860968      5.076548
25
Coordinates from ORCA-job orca_input E -132.578930441337
  Br     -0.825463      2.879962     -0.063380
  C       0.247523      0.564616     -0.697287
  C       0.419435      1.421319      0.488293
  C       1.774408      2.001235      0.701876
  O       2.408822      2.510183     -0.388496
  C      -0.757649     -0.369377     -0.900620
  C      -0.913773     -0.871027     -2.210394
  C      -1.918877     -1.761223     -2.490040
  C      -2.751150     -2.185595     -1.463207
  C      -2.596215     -1.723301     -0.157019
  C      -1.614393     -0.816064      0.129063
  C       2.348145      1.976357      1.893139
  H       0.902829      0.788307     -1.532958
  H       0.006419      1.018369      1.403649
  H      -0.241593     -0.531158     -2.986722
  H      -2.055994     -2.135632     -3.493748
  H      -3.538289     -2.894785     -1.680318
  H      -3.247863     -2.086038      0.623502
  H      -1.484239     -0.463866      1.141386
  H       1.854696      1.501976      2.727856
  H       1.814563      3.046200     -0.924965
  H       3.332321      2.399658      2.038724
  Br      2.107410     -1.896327      0.052423
  Br      2.269591     -1.476379      2.716574
  Br      2.459334     -0.897410      5.072669
25
Coordinates from ORCA-job orca_input E -132.579143197936
  Br     -0.824438      2.899655     -0.054950
  C       0.238305      0.582516     -0.701491
  C       0.417596      1.434894      0.485935
  C       1.776653      2.006668      0.696598
  O       2.411943      2.512167     -0.394782
  C      -0.759978     -0.358478     -0.898614
  C      -0.912457     -0.871200     -2.205254
  C      -1.907984     -1.773789     -2.477700
  C      -2.738227     -2.195691     -1.447941
  C      -2.586897     -1.723237     -0.144815
  C      -1.612868     -0.805839      0.134725
  C       2.354918      1.972208      1.885422
  H       0.890079      0.807699     -1.539407
  H       0.006955      1.030238      1.401564
  H      -0.241250     -0.533740     -2.983332
  H      -2.043152     -2.155941     -3.478694
  H      -3.516691     -2.916426     -1.658842
  H      -3.238275     -2.083046      0.637352
  H      -1.484901     -0.446761      1.144826
  H       1.861309      1.498001      2.720137
  H       1.821415      3.055382     -0.928036
  H       3.340954      2.391440      2.029779
  Br      2.123983     -1.886662      0.032903
  Br      2.239441     -1.490687      2.682869
  Br      2.383567     -0.949372      5.061750
25
Coordinates from ORCA-job orca_input E -132.579317986467
  Br     -0.821279      2.927959     -0.045472
  C       0.225597      0.608414     -0.709002
  C       0.415340      1.454003      0.481054
  C       1.780344      2.013475      0.688289
  O       2.414540      2.521774     -0.402319
  C      -0.759636     -0.345099     -0.896115
  C      -0.909993     -0.870593     -2.199208
  C      -1.893920     -1.787976     -2.461446
  C      -2.715252     -2.212697     -1.425279
  C      -2.570750     -1.723726     -0.127234
  C      -1.606807     -0.793441      0.142834
  C       2.363461      1.965976      1.874233
  H       0.869379      0.838628     -1.551564
  H       0.007526      1.046828      1.396796
  H      -0.247731     -0.528031     -2.982487
  H      -2.022620     -2.185787     -3.457069
  H      -3.489331     -2.940310     -1.629503
  H      -3.214870     -2.086902      0.659424
  H      -1.485384     -0.420050      1.148434
  H       1.869515      1.489636      2.707502
  H       1.827100      3.075185     -0.928421
  H       3.355202      2.372192      2.016123
  Br      2.137236     -1.894411      0.015661
  Br      2.193681     -1.514232      2.638556
  Br      2.278651     -1.010814      5.046216
25
Coordinates from ORCA-job orca_input E -132.579453280698
  Br     -0.818260      2.975534     -0.028710
  C       0.202793      0.650551     -0.719371
  C       0.408646      1.486397      0.475122
  C       1.783207      2.025254      0.676146
  O       2.416719      2.533834     -0.414466
  C      -0.764761     -0.318992     -0.893628
  C      -0.907850     -0.864577     -2.191234
  C      -1.868624     -1.809086     -2.438644
  C      -2.683815     -2.232373     -1.396415
  C      -2.544997     -1.727904     -0.103391
  C      -1.601402     -0.774114      0.152870
  C       2.377086      1.950232      1.854955
  H       0.838373      0.882859     -1.565762
  H       0.005180      1.075489      1.391121
  H      -0.248643     -0.524288     -2.977855
  H      -1.995780     -2.217667     -3.429995
  H      -3.433746     -2.988723     -1.586922
  H      -3.187541     -2.087613      0.686202
  H      -1.482279     -0.390106      1.154557
  H       1.882776      1.469818      2.685601
  H       1.835795      3.104398     -0.929226
  H       3.374545      2.342722      1.994744
  Br      2.138127     -1.924722     -0.001247
  Br      2.129285     -1.551621      2.580571
  Br      2.145165     -1.085302      5.024976
25
Coordinates from ORCA-job orca_input E -132.579241970069
  Br     -0.814029      3.037658     -0.015959
  C       0.175695      0.702738     -0.731087
  C       0.394844      1.528056      0.466933
  C       1.780835      2.038391      0.663992
  O       2.412739      2.558080     -0.422015
  C      -0.761913     -0.291020     -0.889457
  C      -0.898474     -0.854847     -2.183243
  C      -1.837262     -1.823324     -2.417238
  C      -2.632023     -2.261715     -1.364477
  C      -2.510734     -1.732782     -0.078856
  C      -1.588967     -0.756359      0.163363
  C       2.387571      1.918433      1.831673
  H       0.805887      0.932767     -1.578280
  H      -0.008274      1.115023      1.382441
  H      -0.257777     -0.499356     -2.977988
  H      -1.946762     -2.257997     -3.399289
  H      -3.379606     -3.022091     -1.549902
  H      -3.133101     -2.109400      0.718839
  H      -1.482019     -0.350936      1.157790
  H       1.892644      1.426143      2.654591
  H       1.838478      3.151160     -0.918420
  H       3.393566      2.288622      1.970520
  Br      2.072861     -2.025615     -0.000813
  Br      2.051259     -1.598606      2.517045
  Br      2.044563     -1.113022      4.999837
25
Coordinates from ORCA-job orca_input E -132.578860146075
  Br     -0.816852      3.034311     -0.022130
  C       0.178137      0.699204     -0.731642
  C       0.390254      1.524765      0.466631
  C       1.774378      2.037276      0.668295
  O       2.403266      2.570961     -0.412665
  C      -0.758911     -0.294595     -0.893366
  C      -0.892722     -0.854699     -2.189370
  C      -1.834749     -1.818746     -2.429254
  C      -2.641454     -2.249802     -1.382736
  C      -2.514971     -1.733286     -0.092361
  C      -1.590924     -0.760848      0.155956
  C       2.381358      1.910626      1.835762
  H       0.814143      0.930768     -1.577123
  H      -0.015813      1.111096      1.379894
  H      -0.239224     -0.508897     -2.977726
  H      -1.950734     -2.241319     -3.415709
  H      -3.379385     -3.019457     -1.569186
  H      -3.148497     -2.102843      0.699756
  H      -1.477203     -0.367062      1.154285
  H       1.889250      1.409922      2.655249
  H       1.823752      3.162434     -0.904997
  H       3.387782      2.279423      1.975308
  Br      1.982449     -2.073199      0.038682
  Br      2.067615     -1.595203      2.550788
  Br      2.169056     -1.050831      5.017659
25
Coordinates from ORCA-job orca_input E -132.579074457582
  Br     -0.814012      3.024378     -0.024990
  C       0.182255      0.691158     -0.730576
  C       0.395275      1.517538      0.467359
  C       1.777849      2.033940      0.669283
  O       2.410416      2.558128     -0.414287
  C      -0.761722     -0.298591     -0.894007
  C      -0.897894     -0.857840     -2.189068
  C      -1.842146     -1.820180     -2.427808
  C      -2.647935     -2.250061     -1.380348
  C      -2.519664     -1.731922     -0.091025
  C      -1.592429     -0.761548      0.156847
  C       2.380079      1.919869      1.840788
  H       0.816903      0.926943     -1.579304
  H      -0.010139      1.104073      1.380803
  H      -0.245592     -0.512446     -2.978679
  H      -1.959039     -2.243751     -3.413810
  H      -3.388885     -3.016934     -1.565903
  H      -3.152936     -2.099945      0.702116
  H      -1.478818     -0.366338      1.154671
  H       1.885520      1.426364      2.663131
  H       1.833310      3.146361     -0.913222
  H       3.385079      2.292218      1.980988
  Br      2.028023     -2.016068      0.017346
  Br      2.075916     -1.583200      2.551891
  Br      2.140585     -1.082145      5.017805
25
Coordinates from ORCA-job orca_input E -132.579114758383
  Br     -0.814301      3.016001     -0.028286
  C       0.186149      0.682498     -0.731815
  C       0.397119      1.511519      0.467334
  C       1.777757      2.032201      0.670255
  O       2.412987      2.552426     -0.413705
  C      -0.765119     -0.303023     -0.898830
  C      -0.902502     -0.859570     -2.193670
  C      -1.850510     -1.818401     -2.433551
  C      -2.656001     -2.248547     -1.386188
  C      -2.527320     -1.729797     -0.097358
  C      -1.595748     -0.763259      0.151787
  C       2.376398      1.922472      1.844222
  H       0.824616      0.917284     -1.578886
  H      -0.008207      1.097645      1.381414
  H      -0.250380     -0.514039     -2.983440
  H      -1.966379     -2.242913     -3.419337
  H      -3.402773     -3.009275     -1.573280
  H      -3.159754     -2.098125      0.696417
  H      -1.481360     -0.368787      1.149827
  H       1.880301      1.430236      2.666348
  H       1.837163      3.139095     -0.915952
  H       3.378834      2.300476      1.987670
  Br      2.038539     -1.984283      0.025047
  Br      2.097661     -1.571894      2.579553
  Br      2.172830     -1.089939      5.034425
25
Coordinates from ORCA-job orca_input E -132.579140820016
  Br     -0.818383      3.017869     -0.020667
  C       0.184865      0.684728     -0.732174
  C       0.396185      1.513595      0.467567
  C       1.777492      2.033757      0.668304
  O       2.409165      2.556104     -0.416747
  C      -0.764752     -0.301337     -0.898551
  C      -0.902468     -0.856437     -2.194230
  C      -1.848678     -1.816834     -2.434794
  C      -2.652957     -2.249868     -1.387581
  C      -2.525896     -1.731253     -0.098489
  C      -1.595908     -0.763441      0.150732
  C       2.381707      1.919541      1.838607
  H       0.817612      0.921018     -1.579847
  H      -0.007551      1.098824      1.381943
  H      -0.252172     -0.507912     -2.984288
  H      -1.963903     -2.240794     -3.420966
  H      -3.399248     -3.010782     -1.575695
  H      -3.157869     -2.100986      0.695048
  H      -1.484569     -0.367197      1.148481
  H       1.889140      1.424946      2.661528
  H       1.831646      3.143750     -0.915863
  H       3.384209      2.298421      1.979081
  Br      2.037233     -2.003485      0.036524
  Br      2.095091     -1.580311      2.586555
  Br      2.170009     -1.081918      5.045519
25
Coordinates from ORCA-job orca_input E -132.579156789541
  Br     -0.818696      3.028523     -0.010836
  C       0.178959      0.694243     -0.732883
  C       0.394038      1.520250      0.467523
  C       1.777841      2.034920      0.665907
  O       2.406138      2.561830     -0.419067
  C      -0.766925     -0.293898     -0.897068
  C      -0.899981     -0.855124     -2.191377
  C      -1.840422     -1.821244     -2.430188
  C      -2.644712     -2.254445     -1.382946
  C      -2.522433     -1.731328     -0.095090
  C      -1.598069     -0.758016      0.152127
  C       2.386809      1.915075      1.832803
  H       0.812039      0.927612     -1.580892
  H      -0.009287      1.105441      1.382144
  H      -0.249745     -0.506625     -2.981514
  H      -1.951938     -2.249229     -3.415045
  H      -3.386362     -3.020202     -1.569820
  H      -3.154557     -2.101055      0.698289
  H      -1.489942     -0.358848      1.149131
  H       1.896428      1.419005      2.656087
  H       1.827738      3.152849     -0.913130
  H       3.392368      2.287296      1.969012
  Br      2.031943     -2.019906      0.035164
  Br      2.080850     -1.591575      2.571501
  Br      2.147918     -1.085548      5.040169
25
Coordinates from ORCA-job orca_input E -132.579153324443
  Br     -0.821640      3.032879     -0.005196
  C       0.176427      0.698842     -0.730791
  C       0.391490      1.523688      0.468513
  C       1.776294      2.035961      0.666596
  O       2.403826      2.562714     -0.419077
  C      -0.766379     -0.290697     -0.894209
  C      -0.895402     -0.855510     -2.187883
  C      -1.832346     -1.824689     -2.426673
  C      -2.638750     -2.256760     -1.380531
  C      -2.522817     -1.728625     -0.093980
  C      -1.601462     -0.752698      0.153298
  C       2.389500      1.909657      1.830407
  H       0.805171      0.934826     -1.580496
  H      -0.011843      1.108664      1.382674
  H      -0.245044     -0.506376     -2.977672
  H      -1.939882     -2.255942     -3.410562
  H      -3.378102     -3.024685     -1.567622
  H      -3.156935     -2.097256      0.698309
  H      -1.500404     -0.347433      1.148649
  H       1.900826      1.412676      2.654008
  H       1.825947      3.155831     -0.911165
  H       3.394736      2.283148      1.965366
  Br      2.026744     -2.038912      0.030312
  Br      2.075351     -1.600430      2.556163
  Br      2.144696     -1.078873      5.031562
25
Coordinates from ORCA-job orca_input E -132.579125671802
  Br     -0.821246      3.040766      0.002178
  C       0.171672      0.704730     -0.731061
  C       0.388743      1.527202      0.468960
  C       1.775364      2.034706      0.666978
  O       2.401462      2.565976     -0.417538
  C      -0.769628     -0.285265     -0.894333
  C      -0.893265     -0.854846     -2.186822
  C      -1.825887     -1.828057     -2.425453
  C      -2.634161     -2.259578     -1.380482
  C      -2.524179     -1.727037     -0.095172
  C      -1.606661     -0.747652      0.151849
  C       2.390163      1.905387      1.829335
  H       0.802231      0.937841     -1.580037
  H      -0.015592      1.112572      1.383116
  H      -0.241038     -0.506829     -2.975589
  H      -1.928849     -2.262885     -3.408271
  H      -3.370808     -3.030043     -1.567767
  H      -3.160158     -2.094728      0.696062
  H      -1.509922     -0.339503      1.146490
  H       1.902137      1.407806      2.652896
  H       1.822903      3.161099     -0.906402
  H       3.398461      2.271563      1.961359
  Br      2.016289     -2.059091      0.032679
  Br      2.074659     -1.607470      2.548852
  Br      2.157309     -1.066665      5.028171
25
Coordinates from ORCA-job orca_input E -132.579100569069
  Br     -0.823392      3.046684      0.004166
  C       0.168913      0.708907     -0.730641
  C       0.385034      1.531404      0.468993
  C       1.772540      2.036159      0.668100
  O       2.399809      2.566969     -0.416126
  C      -0.771163     -0.281644     -0.894245
  C      -0.889266     -0.856057     -2.185338
  C      -1.818631     -1.832216     -2.423822
  C      -2.630382     -2.261071     -1.380410
  C      -2.526984     -1.722928     -0.096803
  C      -1.612299     -0.740969      0.150131
  C       2.388826      1.901178      1.828931
  H       0.798582      0.942468     -1.579740
  H      -0.020503      1.117445      1.383009
  H      -0.235913     -0.508552     -2.973433
  H      -1.916839     -2.271149     -3.405317
  H      -3.363873     -3.034608     -1.567360
  H      -3.166076     -2.088149      0.693071
  H      -1.521681     -0.327586      1.143238
  H       1.900811      1.402748      2.651924
  H       1.822769      3.164420     -0.903899
  H       3.396978      2.267577      1.961447
  Br      2.003156     -2.078846      0.035147
  Br      2.078301     -1.618016      2.543430
  Br      2.181284     -1.064165      5.025545
25
Coordinates from ORCA-job orca_input E -132.579083648214
  Br     -0.822895      3.055310      0.006793
  C       0.164614      0.714168     -0.732177
  C       0.381128      1.535839      0.468133
  C       1.770214      2.035704      0.668671
  O       2.398365      2.569509     -0.413683
  C      -0.774875     -0.276497     -0.896113
  C      -0.887164     -0.856257     -2.185454
  C      -1.812043     -1.836800     -2.422957
  C      -2.626469     -2.263593     -1.380708
  C      -2.529998     -1.719129     -0.099196
  C      -1.618740     -0.733867      0.146927
  C       2.385891      1.896889      1.829085
  H       0.795190      0.946191     -1.580500
  H      -0.025858      1.121888      1.381855
  H      -0.231566     -0.510672     -2.972563
  H      -1.905553     -2.280034     -3.402993
  H      -3.356946     -3.040091     -1.567093
  H      -3.171313     -2.082459      0.689763
  H      -1.533656     -0.315535      1.138485
  H       1.896555      1.398084      2.650967
  H       1.822275      3.169736     -0.899188
  H       3.396355      2.256970      1.961280
  Br      1.989628     -2.097924      0.041010
  Br      2.085306     -1.626745      2.543007
  Br      2.211555     -1.060686      5.026649
25
Coordinates from ORCA-job orca_input E -132.579077342039
  Br     -0.823108      3.065415      0.008448
  C       0.159786      0.720788     -0.733617
  C       0.376329      1.542054      0.467024
  C       1.767200      2.036543      0.669051
  O       2.397426      2.570409     -0.412136
  C      -0.778420     -0.270675     -0.897546
  C      -0.884285     -0.856686     -2.184778
  C      -1.804393     -1.841855     -2.420889
  C      -2.621287     -2.266482     -1.379599
  C      -2.531946     -1.715230     -0.100428
  C      -1.625110     -0.725627      0.144353
  C       2.383285      1.890511      1.828302
  H       0.790434      0.952209     -1.581665
  H      -0.031932      1.127955      1.380165
  H      -0.228166     -0.511434     -2.971626
  H      -1.892316     -2.290597     -3.398946
  H      -3.347428     -3.047326     -1.564687
  H      -3.175932     -2.076079      0.687496
  H      -1.545916     -0.301864      1.134117
  H       1.892451      1.391020      2.648902
  H       1.823916      3.174684     -0.895638
  H       3.394678      2.247574      1.961567
  Br      1.976602     -2.116432      0.045552
  Br      2.090760     -1.637029      2.540278
  Br      2.237371     -1.061846      5.026300
25
Coordinates from ORCA-job orca_input E -132.579074030398
  Br     -0.822536      3.074514      0.009829
  C       0.155655      0.726324     -0.735619
  C       0.372195      1.547420      0.465652
  C       1.764607      2.037260      0.668932
  O       2.395839      2.573972     -0.410280
  C      -0.781833     -0.265561     -0.899722
  C      -0.881892     -0.857119     -2.184980
  C      -1.797340     -1.846879     -2.419526
  C      -2.616855     -2.269092     -1.379207
  C      -2.534666     -1.710905     -0.102527
  C      -1.631201     -0.717968      0.141059
  C       2.379874      1.886331      1.827655
  H       0.786489      0.956898     -1.583120
  H      -0.036663      1.132161      1.378451
  H      -0.223764     -0.513786     -2.971013
  H      -1.880745     -2.300128     -3.395916
  H      -3.339846     -3.053075     -1.563296
  H      -3.180519     -2.069961      0.684698
  H      -1.558095     -0.288342      1.128782
  H       1.887318      1.385844      2.646461
  H       1.823567      3.181531     -0.891147
  H       3.393090      2.237904      1.961668
  Br      1.961250     -2.135757      0.052632
  Br      2.098031     -1.647292      2.541876
  Br      2.268039     -1.064293      5.028658
25
Coordinates from ORCA-job orca_input E -132.579074833592
  Br     -0.822309      3.085639      0.011822
  C       0.150497      0.733583     -0.738136
  C       0.367317      1.554422      0.463815
  C       1.761792      2.038539      0.667968
  O       2.394174      2.576845     -0.409754
  C      -0.785550     -0.259288     -0.901856
  C      -0.879670     -0.856711     -2.185012
  C      -1.790175     -1.851302     -2.417752
  C      -2.611108     -2.272247     -1.377923
  C      -2.535291     -1.707923     -0.103524
  C      -1.636684     -0.710202      0.138193
  C       2.377892      1.879226      1.825115
  H       0.781285      0.963138     -1.585212
  H      -0.041898      1.137873      1.375792
  H      -0.221626     -0.513248     -2.971075
  H      -1.868330     -2.309880     -3.392095
  H      -3.329668     -3.060641     -1.560453
  H      -3.183195     -2.064979      0.682929
  H      -1.568626     -0.276011      1.124295
  H       1.884033      1.376940      2.642114
  H       1.824005      3.189008     -0.887261
  H       3.392277      2.226977      1.960235
  Br      1.946612     -2.153819      0.061110
  Br      2.102306     -1.657735      2.544223
  Br      2.291940     -1.068206      5.032441
25
Coordinates from ORCA-job orca_input E -132.579073858926
  Br     -0.822176      3.094443      0.013121
  C       0.146736      0.738977     -0.740312
  C       0.363129      1.560158      0.462138
  C       1.759127      2.040021      0.666966
  O       2.391604      2.581990     -0.408797
  C      -0.788305     -0.254529     -0.903998
  C      -0.877051     -0.856974     -2.185302
  C      -1.783222     -1.855773     -2.416446
  C      -2.606556     -2.274471     -1.377509
  C      -2.537339     -1.703840     -0.105501
  C      -1.641808     -0.703118      0.135071
  C       2.375198      1.874593      1.822958
  H       0.777359      0.967765     -1.586941
  H      -0.046015      1.141773      1.373730
  H      -0.217138     -0.515279     -2.970585
  H      -1.857407     -2.318337     -3.389226
  H      -3.322144     -3.065781     -1.559029
  H      -3.186649     -2.059572      0.680394
  H      -1.579651     -0.263382      1.119119
  H       1.880115      1.370224      2.637778
  H       1.822099      3.197510     -0.882799
  H       3.391112      2.217493      1.958987
  Br      1.929855     -2.172824      0.070550
  Br      2.108377     -1.668187      2.548919
  Br      2.320752     -1.072880      5.036716
25
Coordinates from ORCA-job orca_input E -132.579075365977
  Br     -0.822171      3.104866      0.015120
  C       0.142110      0.745828     -0.743097
  C       0.358481      1.567062      0.459954
  C       1.756403      2.041899      0.665096
  O       2.388736      2.587200     -0.408982
  C      -0.791365     -0.248753     -0.906243
  C      -0.874663     -0.856507     -2.185578
  C      -1.776470     -1.859515     -2.415035
  C      -2.600974     -2.277162     -1.376499
  C      -2.537438     -1.701152     -0.106593
  C      -1.646418     -0.696041      0.132177
  C       2.373872      1.867660      1.818947
  H       0.772589      0.973462     -1.589329
  H      -0.050365      1.146753      1.370839
  H      -0.214849     -0.514676     -2.970894
  H      -1.845826     -2.326956     -3.385848
  H      -3.312645     -3.072319     -1.556590
  H      -3.188681     -2.055033      0.678540
  H      -1.588661     -0.252571      1.114826
  H       1.878063      1.360442      2.631575
  H       1.820223      3.206930     -0.878690
  H       3.390938      2.206733      1.955934
  Br      1.913352     -2.190445      0.081926
  Br      2.111815     -1.678717      2.555332
  Br      2.343944     -1.078989      5.043112
25
Coordinates from ORCA-job orca_input E -132.579073026012
  Br     -0.822761      3.113060      0.016790
  C       0.138652      0.751102     -0.745286
  C       0.354252      1.572788      0.458129
  C       1.753614      2.043938      0.663461
  O       2.384894      2.594158     -0.408618
  C      -0.793482     -0.244388     -0.908277
  C      -0.871681     -0.856727     -2.185882
  C      -1.769572     -1.863452     -2.413947
  C      -2.596497     -2.278920     -1.376379
  C      -2.539142     -1.697223     -0.108726
  C      -1.650809     -0.689568      0.129164
  C       2.372262      1.862068      1.815286
  H       0.769037      0.977845     -1.591073
  H      -0.054011      1.150288      1.368539
  H      -0.209907     -0.516645     -2.970313
  H      -1.835259     -2.334447     -3.383306
  H      -3.305512     -3.076628     -1.555618
  H      -3.191649     -2.050044      0.675835
  H      -1.598712     -0.241033      1.109840
  H       1.876110      1.351431      2.625462
  H       1.816137      3.217002     -0.873933
  H       3.390566      2.197092      1.953008
  Br      1.894998     -2.208895      0.093853
  Br      2.116788     -1.688752      2.563111
  Br      2.371683     -1.084051      5.048879
25
Coordinates from ORCA-job orca_input E -132.579065444325
  Br     -0.823600      3.121775      0.018998
  C       0.134988      0.756894     -0.747556
  C       0.349824      1.578909      0.456222
  C       1.750799      2.046077      0.661545
  O       2.380751      2.601126     -0.408708
  C      -0.795421     -0.239748     -0.910183
  C      -0.868516     -0.856653     -2.186082
  C      -1.763100     -1.866432     -2.413138
  C      -2.591589     -2.280710     -1.376273
  C      -2.539429     -1.694524     -0.110435
  C      -1.654724     -0.683483      0.126337
  C       2.371612      1.855330      1.810757
  H       0.765428      0.982396     -1.592798
  H      -0.057872      1.154385      1.365907
  H      -0.206410     -0.516614     -2.970256
  H      -1.824240     -2.341689     -3.380718
  H      -3.297746     -3.081132     -1.554676
  H      -3.194151     -2.045517      0.673103
  H      -1.606520     -0.232119      1.105920
  H       1.875685      1.340856      2.618686
  H       1.811662      3.227152     -0.869368
  H       3.390956      2.186993      1.948889
  Br      1.875232     -2.227143      0.107242
  Br      2.119646     -1.698381      2.571691
  Br      2.396736     -1.087745      5.054891
25
Coordinates from ORCA-job orca_input E -132.579029910186
  Br     -0.825136      3.128921      0.024009
  C       0.131974      0.761584     -0.748969
  C       0.345790      1.583785      0.455397
  C       1.748298      2.047513      0.660194
  O       2.375921      2.608342     -0.408307
  C      -0.796503     -0.236076     -0.911499
  C      -0.865181     -0.856144     -2.186360
  C      -1.756402     -1.868897     -2.412971
  C      -2.587131     -2.281992     -1.377322
  C      -2.540388     -1.691933     -0.113022
  C      -1.657869     -0.679109      0.123740
  C       2.372278      1.847947      1.806237
  H       0.762399      0.985629     -1.593343
  H      -0.061132      1.157135      1.364329
  H      -0.201187     -0.517194     -2.969410
  H      -1.814369     -2.346454     -3.379614
  H      -3.291286     -3.084178     -1.555737
  H      -3.195927     -2.042917      0.669831
  H      -1.614726     -0.224179      1.101914
  H       1.877659      1.329024      2.612245
  H       1.805566      3.236894     -0.863988
  H       3.392684      2.176567      1.943786
  Br      1.851971     -2.246885      0.121427
  Br      2.120441     -1.705040      2.579284
  Br      2.422256     -1.082344      5.058147
25
Coordinates from ORCA-job orca_input E -132.579026047907
  Br     -0.824005      3.118967      0.018386
  C       0.135703      0.754540     -0.745672
  C       0.348830      1.576313      0.458054
  C       1.749438      2.044233      0.664470
  O       2.379763      2.599929     -0.405159
  C      -0.795167     -0.241770     -0.909969
  C      -0.867016     -0.857699     -2.186310
  C      -1.763266     -1.865541     -2.415503
  C      -2.594093     -2.278881     -1.380220
  C      -2.543916     -1.692618     -0.114313
  C      -1.656697     -0.684422      0.125328
  C       2.369987      1.851910      1.813697
  H       0.769695      0.979679     -1.589868
  H      -0.059718      1.151661      1.367062
  H      -0.202024     -0.519294     -2.968729
  H      -1.823403     -2.340314     -3.383373
  H      -3.303436     -3.075930     -1.561076
  H      -3.198716     -2.044789      0.668626
  H      -1.609961     -0.232753      1.104830
  H       1.874031      1.335977      2.620302
  H       1.810268      3.225523     -0.865958
  H       3.388647      2.185142      1.953164
  Br      1.865662     -2.234291      0.111058
  Br      2.128539     -1.688341      2.572130
  Br      2.420854     -1.067231      5.049045
25
Coordinates from ORCA-job orca_input E -132.579042836960
  Br     -0.824920      3.127828      0.022123
  C       0.132207      0.761312     -0.748266
  C       0.345580      1.582894      0.455797
  C       1.747890      2.046792      0.661418
  O       2.377115      2.605702     -0.407099
  C      -0.796162     -0.237177     -0.911119
  C      -0.865139     -0.856357     -2.186331
  C      -1.757594     -1.867795     -2.413784
  C      -2.587561     -2.281809     -1.377994
  C      -2.540910     -1.692087     -0.113520
  C      -1.657277     -0.680444      0.124488
  C       2.370870      1.846395      1.808128
  H       0.764359      0.987323     -1.593851
  H      -0.061991      1.156476      1.364247
  H      -0.200887     -0.517385     -2.969139
  H      -1.815070     -2.345460     -3.380387
  H      -3.294637     -3.081088     -1.557872
  H      -3.195205     -2.044664      0.669644
  H      -1.613278     -0.226546      1.103104
  H       1.875222      1.327978      2.613386
  H       1.807565      3.233892     -0.864290
  H       3.390471      2.176785      1.947485
  Br      1.849426     -2.247742      0.119966
  Br      2.122100     -1.699767      2.578703
  Br      2.427826     -1.075056      5.055160
25
Coordinates from ORCA-job orca_input E -132.579023384195
  Br     -0.827305      3.135624      0.028072
  C       0.129113      0.766772     -0.748686
  C       0.341351      1.588823      0.455204
  C       1.745319      2.048676      0.660165
  O       2.372030      2.613053     -0.406868
  C      -0.796449     -0.233048     -0.911294
  C      -0.859989     -0.856800     -2.184945
  C      -1.748991     -1.871152     -2.411856
  C      -2.581552     -2.283360     -1.377397
  C      -2.540725     -1.689160     -0.114753
  C      -1.660455     -0.674602      0.122865
  C       2.372085      1.840274      1.803370
  H       0.760527      0.991625     -1.594000
  H      -0.066200      1.161782      1.363334
  H      -0.194681     -0.518220     -2.967031
  H      -1.801936     -2.352612     -3.376832
  H      -3.285422     -3.085598     -1.556658
  H      -3.197562     -2.040048      0.667030
  H      -1.621572     -0.217166      1.100073
  H       1.878221      1.318436      2.607668
  H       1.800993      3.243089     -0.859666
  H       3.393307      2.166561      1.940493
  Br      1.825911     -2.269090      0.128649
  Br      2.118246     -1.710974      2.579966
  Br      2.445735     -1.072885      5.053097
25
Coordinates from ORCA-job orca_input E -132.578999094536
  Br     -0.828116      3.145279      0.037877
  C       0.125142      0.773471     -0.750563
  C       0.338236      1.594914      0.454171
  C       1.744363      2.049938      0.657121
  O       2.368345      2.619203     -0.408916
  C      -0.797504     -0.227805     -0.911855
  C      -0.858075     -0.853923     -2.184831
  C      -1.741954     -1.872960     -2.410298
  C      -2.574254     -2.286298     -1.375870
  C      -2.537215     -1.689582     -0.114267
  C      -1.661030     -0.671392      0.122035
  C       2.375438      1.833053      1.796149
  H       0.753494      0.998104     -1.596220
  H      -0.068080      1.166340      1.362112
  H      -0.193008     -0.514558     -2.966805
  H      -1.792893     -2.355822     -3.374693
  H      -3.273903     -3.092466     -1.554036
  H      -3.193635     -2.041405      0.667454
  H      -1.626153     -0.211544      1.098267
  H       1.883434      1.308103      2.599649
  H       1.796154      3.251484     -0.857100
  H       3.398305      2.155205      1.930708
  Br      1.807262     -2.286490      0.138601
  Br      2.108111     -1.719849      2.584348
  Br      2.447537     -1.071000      5.056963
25
Coordinates from ORCA-job orca_input E -132.578989920760
  Br     -0.830788      3.150624      0.044270
  C       0.123831      0.777534     -0.751288
  C       0.335706      1.599450      0.453599
  C       1.742709      2.052885      0.655365
  O       2.364298      2.626765     -0.409592
  C      -0.796645     -0.225499     -0.912169
  C      -0.853881     -0.854314     -2.184262
  C      -1.736061     -1.874667     -2.409639
  C      -2.569325     -2.287548     -1.375784
  C      -2.535768     -1.688322     -0.115215
  C      -1.661848     -0.668214      0.120930
  C       2.376839      1.829791      1.791654
  H       0.751294      1.003020     -1.597638
  H      -0.069271      1.168986      1.361094
  H      -0.188939     -0.514378     -2.966095
  H      -1.783781     -2.360195     -3.372854
  H      -3.267742     -3.094786     -1.553929
  H      -3.193817     -2.039157      0.665563
  H      -1.629469     -0.207252      1.096751
  H       1.886571      1.301426      2.594007
  H       1.790230      3.259320     -0.854973
  H       3.400296      2.150570      1.925014
  Br      1.781823     -2.305759      0.148791
  Br      2.101380     -1.729524      2.589324
  Br      2.462358     -1.070758      5.057076
25
Coordinates from ORCA-job orca_input E -132.579089350949
  Br     -0.828990      3.151010      0.039975
  C       0.122877      0.778524     -0.752564
  C       0.336947      1.599912      0.451909
  C       1.744102      2.052649      0.653465
  O       2.367191      2.623433     -0.412294
  C      -0.798287     -0.224549     -0.912397
  C      -0.857077     -0.853776     -2.183982
  C      -1.737666     -1.876010     -2.406958
  C      -2.569134     -2.288851     -1.371659
  C      -2.534114     -1.688721     -0.111594
  C      -1.661336     -0.666955      0.122407
  C       2.376378      1.833355      1.791662
  H       0.746517      1.008288     -1.601768
  H      -0.067887      1.170410      1.359671
  H      -0.193978     -0.513369     -2.967198
  H      -1.787152     -2.361526     -3.370111
  H      -3.264938     -3.098876     -1.547243
  H      -3.191456     -2.038868      0.670108
  H      -1.628812     -0.204259      1.097402
  H       1.884621      1.307925      2.595247
  H       1.794891      3.256654     -0.858968
  H       3.400500      2.152100      1.924706
  Br      1.808705     -2.291513      0.138423
  Br      2.101859     -1.733983      2.587890
  Br      2.436240     -1.093002      5.063871
25
Coordinates from ORCA-job orca_input E -132.579151245031
  Br     -0.828019      3.161254      0.045104
  C       0.118035      0.787281     -0.755238
  C       0.334881      1.606726      0.449740
  C       1.744045      2.054348      0.649689
  O       2.366509      2.627431     -0.415175
  C      -0.799896     -0.218825     -0.912754
  C      -0.856942     -0.851276     -2.183044
  C      -1.731614     -1.879174     -2.402550
  C      -2.561082     -2.292930     -1.365904
  C      -2.528572     -1.689318     -0.107436
  C      -1.660186     -0.663232      0.123748
  C       2.378300      1.828542      1.785585
  H       0.738084      1.020069     -1.606717
  H      -0.068553      1.175687      1.357268
  H      -0.195415     -0.510125     -2.967281
  H      -1.780223     -2.366623     -3.364780
  H      -3.251889     -3.107840     -1.538601
  H      -3.184074     -2.040517      0.675349
  H      -1.630650     -0.196929      1.097118
  H       1.886497      1.302108      2.588389
  H       1.794896      3.263327     -0.858888
  H       3.403933      2.142949      1.917251
  Br      1.806284     -2.302568      0.137443
  Br      2.089834     -1.744679      2.585263
  Br      2.415817     -1.105685      5.066420
25
Coordinates from ORCA-job orca_input E -132.579174658917
  Br     -0.828800      3.168176      0.049337
  C       0.115381      0.792651     -0.755981
  C       0.332661      1.611989      0.448784
  C       1.743111      2.056543      0.647633
  O       2.364277      2.632922     -0.416125
  C      -0.799767     -0.215487     -0.912428
  C      -0.854233     -0.850341     -2.181770
  C      -1.725750     -1.881039     -2.399974
  C      -2.554748     -2.295108     -1.363028
  C      -2.525058     -1.688892     -0.105711
  C      -1.660032     -0.659719      0.124299
  C       2.379457      1.825045      1.781183
  H       0.732670      1.027039     -1.608251
  H      -0.070062      1.180429      1.356360
  H      -0.193803     -0.508047     -2.966438
  H      -1.771907     -2.370932     -3.361082
  H      -3.242986     -3.112422     -1.534603
  H      -3.181322     -2.039502      0.676699
  H      -1.632822     -0.191751      1.096936
  H       1.888285      1.296402      2.582887
  H       1.791914      3.269676     -0.857625
  H       3.406202      2.136350      1.911531
  Br      1.793758     -2.321719      0.139339
  Br      2.081161     -1.754180      2.583711
  Br      2.412413     -1.108085      5.064318
25
Coordinates from ORCA-job orca_input E -132.579156420567
  Br     -0.829660      3.176056      0.058879
  C       0.112518      0.798706     -0.757147
  C       0.330691      1.617256      0.448375
  C       1.742667      2.058720      0.644891
  O       2.360725      2.639630     -0.418169
  C      -0.799209     -0.211494     -0.912061
  C      -0.851977     -0.847625     -2.181158
  C      -1.719389     -1.881950     -2.398203
  C      -2.547428     -2.297604     -1.360975
  C      -2.520160     -1.690052     -0.104223
  C      -1.658156     -0.658326      0.124846
  C       2.383440      1.820305      1.774354
  H       0.726809      1.033364     -1.609817
  H      -0.070490      1.184393      1.355987
  H      -0.192346     -0.504123     -2.965978
  H      -1.764492     -2.372395     -3.359084
  H      -3.232517     -3.117728     -1.531762
  H      -3.174936     -2.042515      0.678605
  H      -1.633766     -0.188705      1.096767
  H       1.894662      1.288430      2.575517
  H       1.786497      3.276969     -0.856378
  H       3.411245      2.129298      1.901777
  Br      1.773022     -2.342236      0.146589
  Br      2.066713     -1.762836      2.584405
  Br      2.405539     -1.105537      5.063964
25
Coordinates from ORCA-job orca_input E -132.579160275696
  Br     -0.830738      3.170691      0.059038
  C       0.113686      0.795372     -0.757424
  C       0.330950      1.612885      0.448837
  C       1.742245      2.055816      0.645702
  O       2.359557      2.636644     -0.417966
  C      -0.800284     -0.213007     -0.913643
  C      -0.853706     -0.847644     -2.183273
  C      -1.722564     -1.880606     -2.401394
  C      -2.552052     -2.295532     -1.364990
  C      -2.524332     -1.688956     -0.107737
  C      -1.660655     -0.658821      0.122299
  C       2.383631      1.820368      1.775721
  H       0.726859      1.033670     -1.611550
  H      -0.069994      1.178839      1.355711
  H      -0.192919     -0.504857     -2.967474
  H      -1.768809     -2.369504     -3.363034
  H      -3.237562     -3.115153     -1.536389
  H      -3.180424     -2.040458      0.674437
  H      -1.636346     -0.189400      1.094360
  H       1.896377      1.289260      2.578555
  H       1.784757      3.273560     -0.856044
  H       3.411446      2.129989      1.901473
  Br      1.783091     -2.333098      0.154924
  Br      2.079048     -1.758640      2.596108
  Br      2.418740     -1.101418      5.073752
25
Coordinates from ORCA-job orca_input E -132.579247422615
  Br     -0.828521      3.177284      0.057972
  C       0.111114      0.801334     -0.759209
  C       0.331227      1.617830      0.446902
  C       1.743620      2.058061      0.642424
  O       2.361598      2.637435     -0.421523
  C      -0.800477     -0.210028     -0.912730
  C      -0.855262     -0.845231     -2.182023
  C      -1.720979     -1.881378     -2.397335
  C      -2.545662     -2.299285     -1.358254
  C      -2.516830     -1.692009     -0.101386
  C      -1.656376     -0.658558      0.125944
  C       2.385077      1.820329      1.772169
  H       0.720570      1.043637     -1.616142
  H      -0.069048      1.184361      1.354212
  H      -0.198226     -0.500010     -2.968301
  H      -1.767788     -2.371175     -3.358488
  H      -3.229256     -3.120913     -1.527666
  H      -3.169774     -2.045390      0.682577
  H      -1.630992     -0.188938      1.097866
  H       1.896640      1.290026      2.574881
  H       1.787975      3.275274     -0.859779
  H       3.413500      2.127926      1.897874
  Br      1.790140     -2.335733      0.146072
  Br      2.064513     -1.766613      2.589887
  Br      2.383216     -1.118235      5.074057
25
Coordinates from ORCA-job orca_input E -132.579343433517
  Br     -0.826585      3.184431      0.054178
  C       0.108166      0.807553     -0.760405
  C       0.330942      1.623753      0.445029
  C       1.744354      2.061120      0.639697
  O       2.363576      2.639185     -0.424083
  C      -0.801025     -0.206866     -0.911603
  C      -0.855872     -0.844341     -2.179733
  C      -1.718193     -1.883926     -2.391790
  C      -2.539696     -2.302738     -1.350643
  C      -2.510830     -1.693177     -0.094932
  C      -1.653283     -0.656619      0.129688
  C       2.385319      1.820668      1.769393
  H       0.716406      1.051378     -1.618669
  H      -0.069324      1.191732      1.352920
  H      -0.201352     -0.498148     -2.967656
  H      -1.764886     -2.375607     -3.351980
  H      -3.220715     -3.127047     -1.517405
  H      -3.161293     -2.047548      0.690642
  H      -1.628031     -0.184891      1.100557
  H       1.895396      1.291083      2.571618
  H       1.791623      3.278526     -0.862331
  H       3.414377      2.126003      1.895422
  Br      1.800053     -2.339077      0.132531
  Br      2.052461     -1.776508      2.579479
  Br      2.348411     -1.138938      5.070076
25
Coordinates from ORCA-job orca_input E -132.579486955903
  Br     -0.822369      3.194356      0.043999
  C       0.103719      0.816733     -0.763430
  C       0.331380      1.632029      0.441075
  C       1.746179      2.065310      0.634622
  O       2.368201      2.638752     -0.429818
  C      -0.802822     -0.201929     -0.910444
  C      -0.859739     -0.842022     -2.177033
  C      -1.717269     -1.886701     -2.383580
  C      -2.531217     -2.308833     -1.337928
  C      -2.500495     -1.696694     -0.083627
  C      -1.647811     -0.654911      0.135714
  C       2.385879      1.822638      1.765019
  H       0.709882      1.063511     -1.623768
  H      -0.069464      1.202948      1.349972
  H      -0.210825     -0.493343     -2.968463
  H      -1.764497     -2.381144     -3.342314
  H      -3.209745     -3.135985     -1.500780
  H      -3.145755     -2.053241      0.705261
  H      -1.619978     -0.181838      1.105790
  H       1.893640      1.295771      2.567701
  H       1.800100      3.281235     -0.868466
  H       3.415664      2.125435      1.891350
  Br      1.828072     -2.329081      0.112311
  Br      2.035727     -1.791023      2.566640
  Br      2.283543     -1.181974      5.070196
25
Coordinates from ORCA-job orca_input E -132.579582727130
  Br     -0.819668      3.196438      0.027191
  C       0.101642      0.819546     -0.766007
  C       0.332397      1.635324      0.437185
  C       1.747102      2.068055      0.631233
  O       2.373027      2.633771     -0.434945
  C      -0.806238     -0.200211     -0.911001
  C      -0.864967     -0.842932     -2.175712
  C      -1.720890     -1.889940     -2.377945
  C      -2.531397     -2.311506     -1.329604
  C      -2.498989     -1.696259     -0.076992
  C      -1.647198     -0.652715      0.138558
  C       2.383814      1.829382      1.764823
  H       0.710686      1.065378     -1.625945
  H      -0.070288      1.210273      1.346878
  H      -0.218444     -0.494853     -2.969336
  H      -1.769129     -2.386716     -3.335420
  H      -3.208968     -3.140116     -1.489035
  H      -3.140832     -2.053076      0.714564
  H      -1.617904     -0.176308      1.106889
  H       1.889484      1.307192      2.569926
  H       1.809651      3.279180     -0.875412
  H       3.413391      2.132677      1.891874
  Br      1.873560     -2.293122      0.094893
  Br      2.039001     -1.802498      2.564679
  Br      2.241157     -1.236966      5.078660
