25
Coordinates from ORCA-job orca_input
  Br         -0.81901450149478      3.18933919412051      0.01139278562421
  C           0.10209119039615      0.81492250995900     -0.76964272544488
  C           0.33360077484917      1.63055951948810      0.43301842938884
  C           1.74689659465660      2.06548883725271      0.62912326959867
  O           2.37647494610703      2.62373850372167     -0.43894687675825
  C          -0.81142021095739     -0.20098993566349     -0.91517456896613
  C          -0.87164881130977     -0.84514684638261     -2.17845032583193
  C          -1.73021712135541     -1.89060988797727     -2.37909006529968
  C          -2.53990720410791     -2.31053135337396     -1.32960792399535
  C          -2.50580974396042     -1.69352114044160     -0.07800562643973
  C          -1.65308539009892     -0.65010323072622      0.13514093269933
  C           2.37992299646060      1.83559077058709      1.76695440736706
  H           0.71414733764301      1.06079788159016     -1.62877326510194
  H          -0.07140844023642      1.20805723094776      1.34265800681995
  H          -0.22517257328982     -0.49906685962981     -2.97299776176929
  H          -1.77820758591219     -2.38977592456408     -3.33533340490781
  H          -3.22006790781069     -3.13719182177760     -1.48803330561448
  H          -3.14889146433155     -2.04703292303099      0.71405061687420
  H          -1.61940897243241     -0.17440686410071      1.10366709860253
  H           1.88465554896812      1.31915287139402      2.57575011270977
  H           1.81733855030816      3.27175271540731     -0.88106358687154
  H           3.40888096456114      2.14107737402347      1.89409037038005
  Br          1.92376286418418     -2.23007612517680      0.09803552928461
  Br          2.06625946293470     -1.80351168638572      2.58654382298692
  Br          2.24022869622882     -1.28851280926093      5.10469405466487
