25
Coordinates from ORCA-job orca_input_NEB-CI_converged E -132.577575440098
  Br         -0.82499154016014      2.84516711846125     -0.09300847144932
  C           0.26548043526138      0.53366218085545     -0.68718834006417
  C           0.42021671118457      1.40018710841973      0.49303427003717
  C           1.76668444495076      1.99623964800894      0.71392404496814
  O           2.39836732018618      2.51697491752909     -0.37254498825001
  C          -0.74550511536126     -0.39191979830143     -0.90152442566624
  C          -0.91524349588772     -0.85922775175052     -2.22161674546165
  C          -1.94330393764845     -1.71728244818398     -2.51871876858949
  C          -2.77339535883050     -2.15614822266972     -1.49675323403779
  C          -2.59564336635133     -1.73869419714205     -0.17864817311934
  C          -1.59863284163656     -0.85385576553806      0.12378310539695
  C           2.33266131475001      1.98009460005533      1.90879373579661
  H           0.93580545275366      0.74622741481594     -1.51415704953720
  H          -0.00054335443757      1.00298561143183      1.40792964050912
  H          -0.24271258100812     -0.50885678719160     -2.99386733356129
  H          -2.09936920131734     -2.05411259720205     -3.53317919005092
  H          -3.57641192585556     -2.84188174767984     -1.72759414892569
  H          -3.24219957565344     -2.11717654441754      0.59808227418555
  H          -1.44929659127132     -0.53482931070723      1.14465711789269
  H           1.83748018390290      1.50135452745700      2.73903190735217
  H           1.79498605734401      3.03855483633988     -0.91327428809039
  H           3.30998727436703      2.41703189974543      2.06244819895666
  Br          2.02256376579219     -2.03741771518762      0.12711899175794
  Br          2.30494755738966     -1.45538473790163      2.77230013399079
  Br          2.61806836753695     -0.71169223924661      5.06097173595971
