25
Coordinates from ORCA-job orca_input_MEP E -132.583146218828
  Br     -0.842454      3.187729      0.331221
  C       0.147213      0.883447     -0.647275
  C       0.415910      1.677134      0.564108
  C       1.822537      2.173646      0.639277
  O       2.278784      2.903131     -0.410151
  C      -0.709376     -0.181161     -0.766813
  C      -0.777126     -0.825579     -2.031961
  C      -1.596722     -1.904235     -2.210181
  C      -2.367766     -2.349234     -1.141041
  C      -2.331365     -1.729130      0.108889
  C      -1.509520     -0.658832      0.306097
  C       2.612081      1.827329      1.642841
  H       0.697481      1.186848     -1.532106
  H       0.128193      1.191385      1.488275
  H      -0.165270     -0.451989     -2.841346
  H      -1.647790     -2.407647     -3.163937
  H      -3.017294     -3.203314     -1.281568
  H      -2.945800     -2.103848      0.913828
  H      -1.472582     -0.177179      1.271793
  H       2.243602      1.185662      2.428545
  H       1.596555      3.487705     -0.758727
  H       3.638531      2.165051      1.673187
  Br      2.032478     -3.116815     -0.317394
  Br      1.305499     -1.990969      1.804215
  Br      0.464200     -0.769134      3.930226
25
Coordinates from ORCA-job orca_input_MEP E -132.582799027150
  Br     -0.850430      3.136534      0.257208
  C       0.169257      0.831847     -0.654418
  C       0.417737      1.641874      0.549959
  C       1.815407      2.157704      0.644748
  O       2.293147      2.851036     -0.420123
  C      -0.699435     -0.222917     -0.782156
  C      -0.791944     -0.836244     -2.060513
  C      -1.655787     -1.875783     -2.263737
  C      -2.435743     -2.320700     -1.201788
  C      -2.364854     -1.738860      0.065354
  C      -1.507014     -0.701512      0.284199
  C       2.578293      1.866012      1.685531
  H       0.733083      1.125755     -1.534144
  H       0.113928      1.172667      1.477133
  H      -0.171683     -0.464065     -2.864377
  H      -1.734466     -2.347001     -3.232109
  H      -3.120757     -3.142872     -1.362028
  H      -2.987431     -2.113076      0.863877
  H      -1.450433     -0.244722      1.260563
  H       2.195561      1.251916      2.486312
  H       1.619221      3.425284     -0.800414
  H       3.598023      2.221553      1.733105
  Br      2.020389     -2.972857     -0.263826
  Br      1.431042     -1.912537      1.957723
  Br      0.784890     -0.789035      4.173922
25
Coordinates from ORCA-job orca_input_MEP E -132.582139602084
  Br     -0.855637      3.095473      0.195546
  C       0.184325      0.790944     -0.660945
  C       0.416694      1.612334      0.538479
  C       1.807435      2.142090      0.651013
  O       2.306041      2.805046     -0.424476
  C      -0.696435     -0.253762     -0.797109
  C      -0.805936     -0.842741     -2.085022
  C      -1.702024     -1.851368     -2.306505
  C      -2.490456     -2.295266     -1.250844
  C      -2.395395     -1.743526      0.028157
  C      -1.510393     -0.732879      0.263455
  C       2.544864      1.895485      1.720520
  H       0.761144      1.075900     -1.535399
  H       0.097108      1.155755      1.466603
  H      -0.178748     -0.471534     -2.884237
  H      -1.799322     -2.297966     -3.284945
  H      -3.201268     -3.092006     -1.425521
  H      -3.023574     -2.117878      0.821969
  H      -1.436597     -0.298327      1.248618
  H       2.148933      1.303738      2.532066
  H       1.641464      3.371939     -0.830982
  H       3.559387      2.264438      1.782630
  Br      2.012116     -2.861917     -0.205576
  Br      1.549851     -1.854228      2.082042
  Br      1.066422     -0.799744      4.360462
25
Coordinates from ORCA-job orca_input_MEP E -132.581376364313
  Br     -0.858430      3.059452      0.140815
  C       0.195698      0.754984     -0.667996
  C       0.414092      1.584882      0.527747
  C       1.798823      2.125507      0.657584
  O       2.318529      2.760745     -0.425502
  C      -0.697964     -0.278602     -0.812925
  C      -0.820537     -0.846662     -2.108390
  C      -1.742963     -1.828329     -2.344856
  C      -2.538932     -2.271266     -1.294742
  C      -2.424789     -1.745615     -0.006513
  C      -1.517530     -0.758000      0.242353
  C       2.510790      1.919869      1.751554
  H       0.785891      1.030730     -1.536619
  H       0.078673      1.138971      1.455391
  H      -0.186534     -0.476922     -2.903231
  H      -1.854562     -2.254016     -3.331170
  H      -3.270341     -3.046221     -1.481228
  H      -3.056886     -2.120775      0.783574
  H      -1.428399     -0.343965      1.234980
  H       2.101432      1.349117      2.571688
  H       1.664134      3.321676     -0.855679
  H       3.520542      2.300274      1.827691
  Br      2.006920     -2.763910     -0.142405
  Br      1.669029     -1.805311      2.199089
  Br      1.333316     -0.806611      4.518792
25
Coordinates from ORCA-job orca_input_MEP E -132.580578116747
  Br     -0.858864      3.025457      0.090569
  C       0.205529      0.720766     -0.674611
  C       0.410926      1.557730      0.518041
  C       1.790073      2.107447      0.665652
  O       2.331481      2.716739     -0.422711
  C      -0.701253     -0.301162     -0.828488
  C      -0.835089     -0.849712     -2.130501
  C      -1.780895     -1.805993     -2.380398
  C      -2.583855     -2.248015     -1.335479
  C      -2.453453     -1.746441     -0.039472
  C      -1.526195     -0.780638      0.221643
  C       2.475149      1.939934      1.781486
  H       0.809093      0.987256     -1.537104
  H       0.059656      1.121171      1.444221
  H      -0.194384     -0.481755     -2.921087
  H      -1.904363     -2.212514     -3.373469
  H      -3.333142     -3.002737     -1.532524
  H      -3.088998     -2.122574      0.747183
  H      -1.423671     -0.385921      1.220792
  H       2.050689      1.388949      2.607967
  H       1.687827      3.271736     -0.875706
  H       3.480613      2.330095      1.872400
  Br      2.003020     -2.671389     -0.077871
  Br      1.786068     -1.755490      2.307984
  Br      1.594040     -0.802939      4.651486
25
Coordinates from ORCA-job orca_input_MEP E -132.579750884473
  Br     -0.857530      2.993040      0.045381
  C       0.214180      0.687959     -0.680414
  C       0.407767      1.530682      0.509741
  C       1.781543      2.088266      0.674634
  O       2.344237      2.674566     -0.416335
  C      -0.706452     -0.321323     -0.843814
  C      -0.849533     -0.851970     -2.151366
  C      -1.815989     -1.784637     -2.413244
  C      -2.625644     -2.225748     -1.373342
  C      -2.481711     -1.746034     -0.070679
  C      -1.536941     -0.800149      0.201292
  C       2.440030      1.955046      1.809927
  H       0.831166      0.944998     -1.536265
  H       0.041128      1.102642      1.433962
  H      -0.202171     -0.486350     -2.937708
  H      -1.949337     -2.173721     -3.412054
  H      -3.390335     -2.962159     -1.579695
  H      -3.120314     -2.123396      0.712925
  H      -1.422532     -0.423685      1.206296
  H       1.999886      1.421879      2.640259
  H       1.710830      3.222988     -0.891007
  H       3.441136      2.353909      1.915634
  Br      2.003217     -2.583082     -0.014296
  Br      1.902505     -1.705850      2.410224
  Br      1.840863     -0.787870      4.759941
25
Coordinates from ORCA-job orca_input_MEP E -132.579051281504
  Br     -0.853134      2.966270      0.011544
  C       0.217446      0.660990     -0.688382
  C       0.404776      1.503367      0.502930
  C       1.772824      2.066006      0.682475
  O       2.359107      2.626900     -0.408371
  C      -0.714822     -0.337850     -0.860985
  C      -0.864398     -0.854572     -2.172598
  C      -1.847339     -1.768425     -2.443472
  C      -2.664034     -2.206173     -1.408184
  C      -2.510031     -1.744256     -0.100551
  C      -1.550820     -0.814460      0.179634
  C       2.407239      1.965382      1.838928
  H       0.843842      0.913180     -1.538681
  H       0.022971      1.081167      1.423594
  H      -0.210534     -0.493332     -2.955402
  H      -1.987579     -2.144485     -3.446355
  H      -3.442008     -2.926644     -1.621788
  H      -3.151587     -2.121024      0.680681
  H      -1.427850     -0.451993      1.188747
  H       1.951414      1.451194      2.671197
  H       1.739138      3.176717     -0.899756
  H       3.401801      2.373964      1.955794
  Br      2.010616     -2.492623      0.054746
  Br      2.023756     -1.655330      2.495944
  Br      2.069205     -0.773970      4.858313
25
Coordinates from ORCA-job orca_input_MEP E -132.578827462143
  Br     -0.851704      2.955517     -0.000673
  C       0.220283      0.650138     -0.689816
  C       0.404431      1.493954      0.501024
  C       1.770725      2.058981      0.685636
  O       2.363177      2.613650     -0.405030
  C      -0.717313     -0.343783     -0.865787
  C      -0.869304     -0.855271     -2.178800
  C      -1.857948     -1.762231     -2.452962
  C      -2.676564     -2.199602     -1.419216
  C      -2.519283     -1.743670     -0.109905
  C      -1.555333     -0.819538      0.173279
  C       2.396948      1.967998      1.847325
  H       0.851295      0.898900     -1.537677
  H       0.018057      1.074042      1.420803
  H      -0.213383     -0.494955     -2.960326
  H      -2.000591     -2.133408     -3.457316
  H      -3.458432     -2.915094     -1.635222
  H      -3.161773     -2.120631      0.670500
  H      -1.429397     -0.462057      1.183807
  H       1.936058      1.458830      2.679812
  H       1.746258      3.161225     -0.902635
  H       3.389884      2.379138      1.968818
  Br      2.013241     -2.458913      0.073372
  Br      2.060591     -1.636703      2.525303
  Br      2.140075     -0.766517      4.885684
25
Coordinates from ORCA-job orca_input_MEP E -132.578653527799
  Br     -0.850427      2.946677     -0.010569
  C       0.222575      0.641229     -0.690904
  C       0.404150      1.486195      0.499491
  C       1.768976      2.053173      0.688234
  O       2.366584      2.602803     -0.402244
  C      -0.719444     -0.348575     -0.869721
  C      -0.873352     -0.855797     -2.183874
  C      -1.866553     -1.757148     -2.460675
  C      -2.686735     -2.194241     -1.428160
  C      -2.526879     -1.743160     -0.117554
  C      -1.559121     -0.823616      0.168011
  C       2.388506      1.970141      1.854074
  H       0.857305      0.887202     -1.536819
  H       0.014058      1.068172      1.418548
  H      -0.215759     -0.496294     -2.964367
  H      -2.011130     -2.124344     -3.466197
  H      -3.471748     -2.905646     -1.646122
  H      -3.170119     -2.120252      0.662172
  H      -1.430818     -0.470201      1.179712
  H       1.923413      1.465108      2.686696
  H       1.752124      3.148514     -0.904897
  H       3.380107      2.383374      1.979257
  Br      2.015642     -2.431146      0.089180
  Br      2.090850     -1.621435      2.549083
  Br      2.197795     -0.760734      4.907645
25
Coordinates from ORCA-job orca_input_MEP E -132.578484156292
  Br     -0.848949      2.937637     -0.020301
  C       0.224984      0.632132     -0.691832
  C       0.404059      1.478301      0.498066
  C       1.767339      2.047294      0.690888
  O       2.370043      2.592185     -0.399322
  C      -0.721668     -0.353266     -0.873578
  C      -0.877425     -0.856221     -2.188795
  C      -1.875022     -1.752113     -2.468171
  C      -2.696731     -2.189016     -1.436874
  C      -2.534416     -1.742603     -0.125039
  C      -1.562984     -0.827542      0.162795
  C       2.380272      1.972104      1.860698
  H       0.863512      0.875176     -1.535759
  H       0.010246      1.062195      1.416453
  H      -0.218187     -0.497606     -2.968334
  H      -2.021431     -2.115446     -3.474826
  H      -3.484680     -2.896462     -1.656709
  H      -3.178362     -2.119854      0.654030
  H      -1.432341     -0.478190      1.175669
  H       1.911048      1.471114      2.693360
  H       1.757825      3.135882     -0.906936
  H       3.370546      2.387499      1.989379
  Br      2.018107     -2.402321      0.104014
  Br      2.120218     -1.606058      2.572819
  Br      2.253999     -0.754819      4.928303
25
Coordinates from ORCA-job orca_input_MEP E -132.578313474770
  Br     -0.847095      2.928011     -0.029988
  C       0.227777      0.622451     -0.692524
  C       0.404350      1.469878      0.496822
  C       1.765992      2.041113      0.693669
  O       2.373591      2.581577     -0.396188
  C      -0.724129     -0.358007     -0.877411
  C      -0.881680     -0.856665     -2.193630
  C      -1.883606     -1.747144     -2.475547
  C      -2.706746     -2.183919     -1.445463
  C      -2.542120     -1.742046     -0.132441
  C      -1.567100     -0.831388      0.157616
  C       2.372352      1.973783      1.867345
  H       0.870395      0.862149     -1.534312
  H       0.006895      1.055716      1.414538
  H      -0.220790     -0.498952     -2.972188
  H      -2.031754     -2.106635     -3.483311
  H      -3.497509     -2.887617     -1.667110
  H      -3.186741     -2.119473      0.645996
  H      -1.434106     -0.486073      1.171626
  H       1.899111      1.476654      2.699991
  H       1.763430      3.123068     -0.908659
  H       3.361227      2.391479      1.999515
  Br      2.020712     -2.370051      0.117083
  Br      2.148774     -1.589367      2.596671
  Br      2.308771     -0.748543      4.947898
25
Coordinates from ORCA-job orca_input_MEP E -132.578151775827
  Br     -0.845039      2.917947     -0.039633
  C       0.230881      0.612268     -0.693100
  C       0.404941      1.461133      0.495723
  C       1.764922      2.034786      0.696502
  O       2.377121      2.570889     -0.392948
  C      -0.726731     -0.362809     -0.881210
  C      -0.886079     -0.857164     -2.198379
  C      -1.892287     -1.742271     -2.482798
  C      -2.716812     -2.178931     -1.453936
  C      -2.549921     -1.741496     -0.139809
  C      -1.571362     -0.835166      0.152489
  C       2.364762      1.975302      1.873967
  H       0.877700      0.848469     -1.532598
  H       0.003872      1.048918      1.412749
  H      -0.223500     -0.500371     -2.975936
  H      -2.042151     -2.097957     -3.491674
  H      -3.510237     -2.879001     -1.677331
  H      -3.195204     -2.119077      0.638051
  H      -1.436032     -0.493853      1.167585
  H       1.887672      1.481933      2.706611
  H       1.768979      3.110112     -0.910180
  H       3.352115      2.395351      2.009668
  Br      2.023428     -2.335039      0.129408
  Br      2.176942     -1.571428      2.619577
  Br      2.362018     -0.742543      4.967203
25
Coordinates from ORCA-job orca_input_MEP E -132.577993665808
  Br     -0.842625      2.907319     -0.049407
  C       0.234392      0.601330     -0.693388
  C       0.405792      1.451891      0.494693
  C       1.763935      2.028223      0.699458
  O       2.380800      2.560136     -0.389525
  C      -0.729384     -0.367870     -0.885031
  C      -0.890622     -0.857650     -2.203126
  C      -1.901164     -1.737284     -2.490079
  C      -2.727057     -2.173925     -1.462493
  C      -2.557922     -1.740915     -0.147259
  C      -1.575774     -0.839009      0.147225
  C       2.357127      1.976753      1.880609
  H       0.885413      0.833986     -1.530678
  H       0.000982      1.041892      1.411081
  H      -0.226352     -0.501821     -2.979696
  H      -2.052651     -2.089137     -3.500047
  H      -3.523085     -2.870386     -1.687603
  H      -3.203796     -2.118652      0.630043
  H      -1.438075     -0.501756      1.163413
  H       1.876234      1.486965      2.713136
  H       1.774553      3.096905     -0.911569
  H       3.342941      2.399320      2.019790
  Br      2.025699     -2.297009      0.140285
  Br      2.205264     -1.553191      2.643919
  Br      2.415377     -0.736115      4.986250
25
Coordinates from ORCA-job orca_input_MEP E -132.577829660037
  Br     -0.839632      2.895707     -0.058982
  C       0.238842      0.589341     -0.693131
  C       0.407435      1.441937      0.493888
  C       1.763527      2.021532      0.702443
  O       2.384520      2.550084     -0.385921
  C      -0.732163     -0.372967     -0.888608
  C      -0.895349     -0.858113     -2.207608
  C      -1.910032     -1.732510     -2.496938
  C      -2.737075     -2.169346     -1.470532
  C      -2.565954     -1.740370     -0.154382
  C      -1.580409     -0.842631      0.142146
  C       2.350388      1.977786      1.887068
  H       0.894241      0.817924     -1.528155
  H      -0.000969      1.034420      1.409871
  H      -0.229413     -0.503225     -2.983156
  H      -2.062845     -2.080791     -3.507870
  H      -3.535289     -2.862730     -1.697174
  H      -3.212196     -2.118267      0.622503
  H      -1.440308     -0.509293      1.159332
  H       1.865933      1.490950      2.719176
  H       1.779612      3.084042     -0.912500
  H       3.334554      2.403130      2.029465
  Br      2.027036     -2.252740      0.145405
  Br      2.230588     -1.534644      2.670236
  Br      2.464959     -0.729226      5.003424
25
Coordinates from ORCA-job orca_input_MEP E -132.577691595029
  Br     -0.836376      2.883466     -0.068435
  C       0.244034      0.576502     -0.692537
  C       0.409741      1.431549      0.493375
  C       1.763628      2.014691      0.705545
  O       2.388237      2.540267     -0.382324
  C      -0.735443     -0.377992     -0.892243
  C      -0.900288     -0.858641     -2.211757
  C      -1.918904     -1.728081     -2.503403
  C      -2.747062     -2.165143     -1.478231
  C      -2.573992     -1.739827     -0.161274
  C      -1.585228     -0.845912      0.137118
  C       2.344434      1.978614      1.893302
  H       0.903984      0.800610     -1.525083
  H      -0.002083      1.026346      1.408836
  H      -0.232632     -0.504837     -2.986416
  H      -2.073046     -2.072910     -3.515393
  H      -3.547114     -2.855787     -1.706255
  H      -3.220645     -2.117931      0.615309
  H      -1.442841     -0.516479      1.155360
  H       1.856728      1.494508      2.725065
  H       1.784393      3.071254     -0.913117
  H       3.326834      2.406855      2.039077
  Br      2.028059     -2.203755      0.148115
  Br      2.254590     -1.513325      2.695571
  Br      2.510991     -0.724042      5.019798
25
Coordinates from ORCA-job orca_input_MEP E -132.577579835349
  Br     -0.832856      2.870974     -0.077478
  C       0.249945      0.562992     -0.691515
  C       0.412440      1.420997      0.492991
  C       1.763963      2.008065      0.708542
  O       2.391837      2.531037     -0.378774
  C      -0.738582     -0.382962     -0.895655
  C      -0.905288     -0.858983     -2.215692
  C      -1.927594     -1.723791     -2.509515
  C      -2.756693     -2.161264     -1.485503
  C      -2.581841     -1.739306     -0.167876
  C      -1.589974     -0.849008      0.132213
  C       2.338950      1.979378      1.899244
  H       0.913963      0.783012     -1.521861
  H      -0.002816      1.018473      1.408032
  H      -0.235912     -0.506297     -2.989412
  H      -2.082746     -2.065437     -3.522408
  H      -3.558365     -2.849515     -1.714797
  H      -3.228685     -2.117604      0.608499
  H      -1.445243     -0.523372      1.151416
  H       1.848112      1.497710      2.730526
  H       1.788827      3.059006     -0.913548
  H       3.319621      2.410470      2.048085
  Br      2.028019     -2.152802      0.147519
  Br      2.276500     -1.493145      2.721511
  Br      2.554419     -0.718628      5.035456
25
Coordinates from ORCA-job orca_input_MEP E -132.577496605320
  Br     -0.828959      2.858304     -0.085353
  C       0.257185      0.548678     -0.689680
  C       0.416011      1.410546      0.492882
  C       1.765017      2.002078      0.711292
  O       2.395137      2.523584     -0.375579
  C      -0.741595     -0.387600     -0.898574
  C      -0.910188     -0.859120     -2.218917
  C      -1.935566     -1.720239     -2.514483
  C      -2.765209     -2.158425     -1.491482
  C      -2.588896     -1.738920     -0.173473
  C      -1.594340     -0.851613      0.127890
  C       2.335169      1.979779      1.904238
  H       0.924440      0.765186     -1.518317
  H      -0.002278      1.010968      1.407798
  H      -0.239259     -0.507535     -2.991762
  H      -2.091173     -2.059399     -3.528067
  H      -3.567821     -2.845177     -1.721653
  H      -3.235591     -2.117344      0.602955
  H      -1.447286     -0.529304      1.147866
  H       1.841890      1.499794      2.734987
  H       1.792190      3.048485     -0.913523
  H       3.314229      2.413735      2.055539
  Br      2.025704     -2.096916      0.139521
  Br      2.291942     -1.475876      2.747321
  Br      2.589246     -0.713669      5.048575
25
Coordinates from ORCA-job orca_input_MEP E -132.577480948896
  Br     -0.824992      2.845167     -0.093008
  C       0.265480      0.533662     -0.687188
  C       0.420217      1.400187      0.493034
  C       1.766684      1.996240      0.713924
  O       2.398367      2.516975     -0.372545
  C      -0.745505     -0.391920     -0.901524
  C      -0.915243     -0.859228     -2.221617
  C      -1.943304     -1.717282     -2.518719
  C      -2.773395     -2.156148     -1.496753
  C      -2.595643     -1.738694     -0.178648
  C      -1.598633     -0.853856      0.123783
  C       2.332661      1.980095      1.908794
  H       0.935805      0.746227     -1.514157
  H      -0.000543      1.002986      1.407930
  H      -0.242713     -0.508857     -2.993867
  H      -2.099369     -2.054113     -3.533179
  H      -3.576412     -2.841882     -1.727594
  H      -3.242200     -2.117177      0.598082
  H      -1.449297     -0.534829      1.144657
  H       1.837480      1.501355      2.739032
  H       1.794986      3.038555     -0.913274
  H       3.309987      2.417032      2.062448
  Br      2.022564     -2.037418      0.127119
  Br      2.304948     -1.455385      2.772300
  Br      2.618068     -0.711692      5.060972
25
Coordinates from ORCA-job orca_input_MEP E -132.577542948607
  Br     -0.821386      2.833509     -0.098954
  C       0.274624      0.518712     -0.684153
  C       0.424378      1.391137      0.493276
  C       1.768251      1.991967      0.716185
  O       2.400946      2.512151     -0.370020
  C      -0.748164     -0.396041     -0.903649
  C      -0.919659     -0.859191     -2.223656
  C      -1.949928     -1.714954     -2.521947
  C      -2.780177     -2.154698     -1.500840
  C      -2.601379     -1.738507     -0.182842
  C      -1.602159     -0.855679      0.120350
  C       2.331031      1.980669      1.912463
  H       0.946089      0.729654     -1.510438
  H       0.001395      0.996710      1.408245
  H      -0.245764     -0.509966     -2.995259
  H      -2.105887     -2.050119     -3.536943
  H      -3.583355     -2.839971     -1.732114
  H      -3.247496     -2.116890      0.594264
  H      -1.450769     -0.539218      1.141774
  H       1.834485      1.502553      2.742132
  H       1.797004      3.030683     -0.913084
  H       3.307053      2.419757      2.067722
  Br      2.017075     -1.982334      0.112611
  Br      2.314151     -1.439726      2.793784
  Br      2.639640     -0.710207      5.071093
25
Coordinates from ORCA-job orca_input_MEP E -132.577718208591
  Br     -0.818289      2.823403     -0.103433
  C       0.284627      0.504108     -0.680466
  C       0.428541      1.383529      0.493601
  C       1.769952      1.988976      0.717987
  O       2.402903      2.509125     -0.368089
  C      -0.750449     -0.399591     -0.905243
  C      -0.923346     -0.859070     -2.224889
  C      -1.955160     -1.713509     -2.523955
  C      -2.785407     -2.154093     -1.503603
  C      -2.605848     -1.738484     -0.185976
  C      -1.604878     -0.856956      0.117623
  C       2.330623      1.981241      1.915125
  H       0.955478      0.715295     -1.507040
  H       0.003869      0.991672      1.408808
  H      -0.248184     -0.510977     -2.995989
  H      -2.110722     -2.047505     -3.539357
  H      -3.588321     -2.839403     -1.735060
  H      -3.251385     -2.116564      0.591674
  H      -1.451620     -0.542520      1.139508
  H       1.833283      1.503294      2.744247
  H       1.798008      3.024932     -0.912745
  H       3.305535      2.422162      2.071469
  Br      2.008886     -1.931167      0.095610
  Br      2.318261     -1.427949      2.811720
  Br      2.653644     -0.709948      5.078472
25
Coordinates from ORCA-job orca_input_MEP E -132.577980481672
  Br     -0.815419      2.814151     -0.106751
  C       0.295970      0.488801     -0.676020
  C       0.432921      1.376738      0.494026
  C       1.771787      1.987031      0.719494
  O       2.404389      2.507456     -0.366574
  C      -0.752283     -0.402906     -0.906352
  C      -0.926640     -0.858806     -2.225556
  C      -1.959579     -1.712731     -2.525066
  C      -2.789577     -2.154236     -1.505387
  C      -2.609556     -1.738543     -0.188385
  C      -1.607105     -0.857771      0.115379
  C       2.331231      1.981947      1.917076
  H       0.964584      0.702171     -1.503747
  H       0.006810      0.987681      1.409584
  H      -0.250211     -0.512023     -2.996157
  H      -2.114324     -2.046031     -3.540722
  H      -3.591934     -2.839994     -1.736826
  H      -3.254282     -2.116219      0.589974
  H      -1.452061     -0.545022      1.137576
  H       1.833517      1.503830      2.745689
  H       1.798269      3.020662     -0.912352
  H       3.305187      2.424299      2.074040
  Br      1.997566     -1.881261      0.076437
  Br      2.319530     -1.417340      2.826472
  Br      2.661211     -0.711884      5.084146
25
Coordinates from ORCA-job orca_input_MEP E -132.578328401951
  Br     -0.813249      2.806663     -0.109002
  C       0.307946      0.474389     -0.671147
  C       0.436821      1.371710      0.494417
  C       1.773588      1.985914      0.720468
  O       2.405451      2.507125     -0.365546
  C      -0.754593     -0.405447     -0.907365
  C      -0.929407     -0.858582     -2.225547
  C      -1.962648     -1.712724     -2.525206
  C      -2.792643     -2.154924     -1.506171
  C      -2.612186     -1.738746     -0.190012
  C      -1.608686     -0.858122      0.113675
  C       2.332734      1.982569      1.918241
  H       0.972557      0.690986     -1.500516
  H       0.009973      0.984648      1.410636
  H      -0.251637     -0.513057     -2.995930
  H      -2.116745     -2.045579     -3.541285
  H      -3.594041     -2.841455     -1.737439
  H      -3.256332     -2.115798      0.589227
  H      -1.452130     -0.546648      1.136256
  H       1.834996      1.504155      2.746358
  H       1.797864      3.017964     -0.911918
  H       3.305873      2.425988      2.075504
  Br      1.985027     -1.837811      0.057496
  Br      2.319401     -1.406702      2.836054
  Br      2.662064     -0.716518      5.088753
25
Coordinates from ORCA-job orca_input_MEP E -132.578981678355
  Br     -0.810736      2.798293     -0.110464
  C       0.324937      0.454742     -0.664267
  C       0.441436      1.365843      0.494541
  C       1.776775      1.985431      0.724137
  O       2.406180      2.508184     -0.364858
  C      -0.755839     -0.409443     -0.908064
  C      -0.932200     -0.858380     -2.225128
  C      -1.966078     -1.712851     -2.525109
  C      -2.795852     -2.156032     -1.506794
  C      -2.615008     -1.738980     -0.191690
  C      -1.609700     -0.858839      0.111748
  C       2.333393      1.983605      1.916960
  H       0.982001      0.678718     -1.497050
  H       0.013560      0.982523      1.411851
  H      -0.253104     -0.514101     -2.995208
  H      -2.118808     -2.045312     -3.541326
  H      -3.595968     -2.843792     -1.737745
  H      -3.258159     -2.115086      0.588625
  H      -1.451591     -0.548407      1.134625
  H       1.836742      1.504380      2.747074
  H       1.797134      3.015740     -0.911646
  H       3.307539      2.427650      2.076749
  Br      1.963917     -1.785436      0.035049
  Br      2.318651     -1.396510      2.845421
  Br      2.660778     -0.721941      5.092571
25
Coordinates from ORCA-job orca_input_MEP E -132.584411376450
  Br     -0.803903      2.777378     -0.113996
  C       0.390098      0.383108     -0.639696
  C       0.453289      1.350246      0.492368
  C       1.778296      1.984389      0.724249
  O       2.409566      2.509192     -0.359536
  C      -0.757962     -0.423651     -0.910878
  C      -0.940945     -0.855786     -2.224502
  C      -1.977456     -1.711304     -2.525937
  C      -2.806536     -2.158682     -1.510583
  C      -2.623666     -1.739372     -0.198967
  C      -1.610363     -0.862682      0.104355
  C       2.337354      1.985301      1.924754
  H       1.000210      0.655096     -1.493349
  H       0.021361      0.977713      1.411885
  H      -0.258297     -0.516028     -2.994174
  H      -2.125776     -2.042724     -3.543441
  H      -3.604469     -2.847831     -1.741254
  H      -3.263833     -2.113576      0.585130
  H      -1.449660     -0.555288      1.128627
  H       1.837589      1.505148      2.749046
  H       1.795684      3.007774     -0.911450
  H       3.307547      2.430871      2.081676
  Br      1.899885     -1.630186     -0.020906
  Br      2.313266     -1.392513      2.885946
  Br      2.678717     -0.716592      5.100636
25
Coordinates from ORCA-job orca_input_MEP E -132.592545529017
  Br     -0.799657      2.755475     -0.134289
  C       0.452165      0.318768     -0.621333
  C       0.459117      1.337760      0.484357
  C       1.775847      1.986964      0.731780
  O       2.407919      2.522486     -0.349211
  C      -0.754363     -0.435646     -0.912759
  C      -0.946818     -0.847837     -2.225348
  C      -1.986640     -1.700391     -2.530395
  C      -2.815146     -2.153991     -1.517884
  C      -2.625232     -1.742570     -0.206600
  C      -1.602926     -0.872952      0.099802
  C       2.327949      1.981834      1.927626
  H       1.006022      0.647174     -1.494356
  H       0.019287      0.980392      1.406770
  H      -0.259874     -0.509993     -2.992899
  H      -2.133965     -2.025027     -3.550330
  H      -3.614859     -2.838679     -1.751158
  H      -3.261932     -2.119358      0.579661
  H      -1.435825     -0.575942      1.127022
  H       1.823036      1.498369      2.750054
  H       1.789043      2.998124     -0.914255
  H       3.297497      2.430519      2.094935
  Br      1.846764     -1.536681     -0.114352
  Br      2.257404     -1.502613      3.018479
  Br      2.775188     -0.596188      5.094683
25
Coordinates from ORCA-job orca_input_MEP E -132.614575029877
  Br     -0.797887      2.647269     -0.225655
  C       0.554260      0.202296     -0.607759
  C       0.466327      1.284919      0.454207
  C       1.758820      1.967965      0.758329
  O       2.430629      2.507548     -0.295478
  C      -0.717213     -0.516556     -0.927698
  C      -0.963934     -0.853748     -2.249115
  C      -2.049744     -1.645845     -2.578069
  C      -2.895575     -2.103641     -1.583493
  C      -2.667338     -1.747226     -0.263926
  C      -1.583023     -0.956493      0.065448
  C       2.264442      1.993656      1.978101
  H       1.001325      0.607470     -1.510079
  H       0.019019      0.927157      1.374415
  H      -0.284595     -0.508758     -3.019409
  H      -2.219307     -1.917383     -3.610344
  H      -3.728841     -2.742507     -1.834602
  H      -3.323959     -2.103681      0.516551
  H      -1.401835     -0.707053      1.102947
  H       1.740596      1.510785      2.790076
  H       1.818517      2.880866     -0.938458
  H       3.216182      2.470423      2.175919
  Br      1.856345     -1.188457     -0.054557
  Br      2.231336     -1.705829      3.495736
  Br      3.275454     -0.303175      4.986913
25
Coordinates from ORCA-job orca_input_MEP E -132.616020197124
  Br     -0.800939      2.595277     -0.299671
  C       0.568352      0.146718     -0.593478
  C       0.444144      1.251276      0.442634
  C       1.724113      1.942181      0.784536
  O       2.439314      2.457849     -0.252273
  C      -0.699993     -0.571707     -0.938272
  C      -0.965588     -0.849553     -2.270259
  C      -2.086089     -1.582229     -2.624301
  C      -2.949442     -2.040873     -1.645782
  C      -2.697356     -1.751075     -0.314033
  C      -1.577594     -1.022736      0.040081
  C       2.179430      2.000110      2.022510
  H       1.038820      0.532062     -1.492785
  H      -0.030173      0.902158      1.352451
  H      -0.283796     -0.495816     -3.033872
  H      -2.274673     -1.800868     -3.665899
  H      -3.815320     -2.626434     -1.918178
  H      -3.369121     -2.105005      0.454744
  H      -1.382957     -0.822370      1.085568
  H       1.629539      1.530952      2.825508
  H       1.856718      2.784558     -0.945385
  H       3.119895      2.487532      2.246613
  Br      1.863404     -1.193063      0.064295
  Br      2.353770     -1.656945      3.828393
  Br      3.715543     -0.111999      4.846854
25
Coordinates from ORCA-job orca_input_MEP E -132.616571155674
  Br     -0.798032      2.558325     -0.351534
  C       0.575409      0.100006     -0.579813
  C       0.426857      1.219592      0.436764
  C       1.696570      1.915834      0.804495
  O       2.445153      2.411464     -0.218036
  C      -0.692549     -0.608020     -0.946523
  C      -0.967446     -0.840946     -2.285155
  C      -2.110137     -1.529905     -2.658018
  C      -2.986028     -1.990721     -1.691636
  C      -2.719386     -1.754003     -0.351771
  C      -1.577875     -1.069448      0.020023
  C       2.114363      1.997774      2.055498
  H       1.069876      0.469401     -1.472584
  H      -0.072224      0.882154      1.337759
  H      -0.280774     -0.481432     -3.041304
  H      -2.310066     -1.708947     -3.705467
  H      -3.873139     -2.536692     -1.979270
  H      -3.400150     -2.111400      0.408112
  H      -1.373594     -0.907762      1.070341
  H       1.541748      1.542472      2.850651
  H       1.886866      2.707645     -0.943910
  H       3.046401      2.492221      2.297911
  Br      1.847551     -1.226023      0.142375
  Br      2.489531     -1.543666      4.045052
  Br      4.021072      0.012076      4.756041
25
Coordinates from ORCA-job orca_input_MEP E -132.616827454285
  Br     -0.793655      2.528485     -0.391128
  C       0.574974      0.065640     -0.572894
  C       0.414863      1.190175      0.432036
  C       1.674157      1.891526      0.820141
  O       2.449254      2.371335     -0.188599
  C      -0.687908     -0.637247     -0.954650
  C      -0.970506     -0.830928     -2.297162
  C      -2.129158     -1.485024     -2.684564
  C      -3.014632     -1.948967     -1.727474
  C      -2.736380     -1.756020     -0.381810
  C      -1.578944     -1.105691      0.002198
  C       2.061674      1.990957      2.080901
  H       1.091121      0.420354     -1.457730
  H      -0.105800      0.863298      1.323567
  H      -0.280402     -0.467730     -3.047014
  H      -2.338513     -1.632179     -3.736096
  H      -3.918657     -2.463426     -2.026436
  H      -3.424347     -2.118727      0.370666
  H      -1.368041     -0.976909      1.055105
  H       1.469145      1.548048      2.867894
  H       1.913215      2.638689     -0.941663
  H       2.986714      2.490068      2.338528
  Br      1.832757     -1.258368      0.192340
  Br      2.623620     -1.426698      4.216479
  Br      4.255450      0.109342      4.707365
25
Coordinates from ORCA-job orca_input_MEP E -132.616905444874
  Br     -0.787467      2.501996     -0.426979
  C       0.578470      0.031118     -0.566334
  C       0.401836      1.167158      0.427139
  C       1.655673      1.866590      0.833497
  O       2.452770      2.331073     -0.164357
  C      -0.687332     -0.661616     -0.963416
  C      -0.974939     -0.822786     -2.309354
  C      -2.147375     -1.445075     -2.707012
  C      -3.039262     -1.912053     -1.758055
  C      -2.752470     -1.758513     -0.409463
  C      -1.582267     -1.139215     -0.014249
  C       2.015000      1.983494      2.102067
  H       1.108355      0.378700     -1.446934
  H      -0.136870      0.844941      1.310191
  H      -0.280129     -0.454215     -3.052582
  H      -2.362553     -1.562597     -3.760383
  H      -3.955556     -2.397560     -2.065651
  H      -3.444023     -2.125297      0.336814
  H      -1.363832     -1.037666      1.040517
  H       1.402892      1.554378      2.880240
  H       1.935050      2.583036     -0.935659
  H       2.933956      2.484110      2.372472
  Br      1.816328     -1.287761      0.231607
  Br      2.754459     -1.311474      4.366910
  Br      4.459284      0.189236      4.678973
