25
Coordinates from ORCA-job orca_input E -132.575783400016
  Br      3.081644     -0.923776      0.787418
  C       0.427566      0.053683      0.821217
  C       1.624180      0.071984     -0.042659
  C       2.040366      1.513000     -0.194510
  O       2.206994      2.103424      1.014354
  C      -0.882026      0.034842      0.397016
  C      -1.279925     -0.339681     -0.911640
  C      -2.604094     -0.300017     -1.248775
  C      -3.541710      0.149495     -0.316673
  C      -3.174270      0.534290      0.967157
  C      -1.859818      0.445610      1.335236
  C       2.204496      2.079399     -1.367374
  H       0.606687      0.237468      1.874651
  H       1.461582     -0.365017     -1.019429
  H      -0.552495     -0.701889     -1.620954
  H      -2.930160     -0.616888     -2.227155
  H      -4.584698      0.190166     -0.600824
  H      -3.920398      0.884235      1.664897
  H      -1.543360      0.716862      2.334277
  H       2.042150      1.518060     -2.278490
  H       2.518128      3.007757      0.912082
  H       2.518244      3.115895     -1.446707
  Br     -0.015710     -3.181252      1.372334
  Br      2.112263     -4.537985      0.355562
  Br      4.044363     -5.689664     -0.561012
25
Coordinates from ORCA-job orca_input E -132.576116769439
  Br      3.084822     -0.915457      0.792777
  C       0.429737      0.060590      0.825039
  C       1.626619      0.079402     -0.039286
  C       2.040024      1.520376     -0.197581
  O       2.206669      2.117948      1.007371
  C      -0.879792      0.040538      0.399632
  C      -1.273737     -0.323435     -0.913044
  C      -2.597145     -0.286552     -1.252397
  C      -3.538956      0.146442     -0.316845
  C      -3.176106      0.518543      0.972056
  C      -1.861399      0.435393      1.341023
  C       2.199230      2.082137     -1.374848
  H       0.608483      0.240330      1.879282
  H       1.464512     -0.361112     -1.014540
  H      -0.542880     -0.673776     -1.624970
  H      -2.919514     -0.593115     -2.235471
  H      -4.581749      0.183858     -0.602319
  H      -3.925884      0.853787      1.673081
  H      -1.548369      0.696834      2.343535
  H       2.035825      1.516014     -2.282140
  H       2.513787      3.023125      0.899347
  H       2.509787      3.118458     -1.460199
  Br     -0.009208     -3.180651      1.364341
  Br      2.107419     -4.558985      0.360299
  Br      4.027824     -5.740691     -0.544143
25
Coordinates from ORCA-job orca_input E -132.576423434870
  Br      3.086429     -0.907778      0.800361
  C       0.431228      0.065403      0.829604
  C       1.627946      0.084232     -0.035196
  C       2.039370      1.524243     -0.201292
  O       2.207402      2.129848      0.998813
  C      -0.877815      0.045268      0.402953
  C      -1.267408     -0.304311     -0.914751
  C      -2.589908     -0.268998     -1.256717
  C      -3.536070      0.144480     -0.316878
  C      -3.178023      0.500854      0.977866
  C      -1.863131      0.423084      1.347750
  C       2.194921      2.079449     -1.383829
  H       0.609555      0.241077      1.884532
  H       1.466457     -0.361227     -1.008206
  H      -0.532962     -0.639903     -1.630138
  H      -2.908342     -0.562639     -2.245147
  H      -4.578621      0.179172     -0.603780
  H      -3.931475      0.819914      1.682482
  H      -1.553456      0.674579      2.353718
  H       2.030513      1.507066     -2.286459
  H       2.511345      3.035356      0.884109
  H       2.500841      3.115952     -1.476520
  Br     -0.008027     -3.179989      1.358075
  Br      2.102486     -4.571323      0.365936
  Br      4.016742     -5.773807     -0.527286
25
Coordinates from ORCA-job orca_input E -132.576705941849
  Br      3.087666     -0.900248      0.808249
  C       0.432611      0.070353      0.834029
  C       1.629172      0.088968     -0.031212
  C       2.039057      1.527718     -0.205145
  O       2.205950      2.142040      0.989918
  C      -0.875912      0.050497      0.406205
  C      -1.261375     -0.284154     -0.916462
  C      -2.583061     -0.250373     -1.260847
  C      -3.533314      0.143151     -0.316726
  C      -3.179859      0.482957      0.983800
  C      -1.864766      0.410838      1.354413
  C       2.190494      2.076258     -1.392976
  H       0.610472      0.241392      1.889708
  H       1.468162     -0.361639     -1.001801
  H      -0.523713     -0.605808     -1.635012
  H      -2.897655     -0.529885     -2.254721
  H      -4.575679      0.174973     -0.604845
  H      -3.936737      0.785892      1.691835
  H      -1.558399      0.651539      2.363911
  H       2.025938      1.497059     -2.290719
  H       2.505427      3.048247      0.868741
  H       2.493886      3.112292     -1.493113
  Br     -0.004376     -3.178934      1.351063
  Br      2.099203     -4.584462      0.371568
  Br      4.006808     -5.808668     -0.509862
25
Coordinates from ORCA-job orca_input E -132.577058731583
  Br      3.091051     -0.887308      0.818997
  C       0.434457      0.075322      0.840105
  C       1.630620      0.095213     -0.026029
  C       2.036658      1.532517     -0.211107
  O       2.201983      2.158819      0.976841
  C      -0.873439      0.056237      0.410863
  C      -1.253508     -0.255480     -0.918848
  C      -2.574034     -0.222122     -1.266669
  C      -3.529599      0.141997     -0.316330
  C      -3.182056      0.457344      0.992055
  C      -1.866828      0.391841      1.363770
  C       2.186373      2.070355     -1.406240
  H       0.611689      0.239079      1.896932
  H       1.470579     -0.363232     -0.992918
  H      -0.511600     -0.555439     -1.642521
  H      -2.883702     -0.481633     -2.267641
  H      -4.571584      0.171692     -0.606325
  H      -3.943432      0.736466      1.705024
  H      -1.564667      0.617740      2.377811
  H       2.024098      1.480687     -2.296935
  H       2.496157      3.065618      0.847014
  H       2.481871      3.106959     -1.516789
  Br      0.001172     -3.176425      1.342734
  Br      2.094731     -4.601249      0.380736
  Br      3.993010     -5.854998     -0.484532
25
Coordinates from ORCA-job orca_input E -132.577474071607
  Br      3.097698     -0.869281      0.834890
  C       0.438008      0.080774      0.847711
  C       1.634123      0.102442     -0.019126
  C       2.034536      1.537747     -0.220516
  O       2.189793      2.182715      0.957369
  C      -0.868962      0.065309      0.416162
  C      -1.242426     -0.212248     -0.922950
  C      -2.561833     -0.180351     -1.274150
  C      -3.523779      0.142237     -0.315443
  C      -3.183570      0.419571      1.003616
  C      -1.868026      0.363701      1.376000
  C       2.179829      2.060672     -1.425335
  H       0.614070      0.233176      1.906308
  H       1.475683     -0.367831     -0.980358
  H      -0.495733     -0.483523     -1.653181
  H      -2.865298     -0.407336     -2.285046
  H      -4.565692      0.165795     -0.606552
  H      -3.950191      0.666414      1.722836
  H      -1.571570      0.563440      2.397062
  H       2.023092      1.455574     -2.305928
  H       2.472473      3.091478      0.815866
  H       2.471183      3.096072     -1.550521
  Br      0.007684     -3.171157      1.334459
  Br      2.086851     -4.621298      0.395536
  Br      3.972057     -5.914092     -0.448708
25
Coordinates from ORCA-job orca_input E -132.577915777841
  Br      3.106598     -0.837297      0.861184
  C       0.439883      0.087115      0.858711
  C       1.636383      0.112462     -0.008531
  C       2.026915      1.545182     -0.235213
  O       2.167147      2.216909      0.928154
  C      -0.865777      0.074560      0.424354
  C      -1.231202     -0.153676     -0.926523
  C      -2.549235     -0.121980     -1.281904
  C      -3.519059      0.137730     -0.312096
  C      -3.186996      0.367404      1.018478
  C      -1.871385      0.322554      1.392121
  C       2.188233      2.039744     -1.452246
  H       0.614074      0.220108      1.920109
  H       1.481568     -0.376927     -0.960569
  H      -0.478098     -0.374292     -1.667485
  H      -2.846100     -0.311768     -2.302517
  H      -4.560080      0.162955     -0.606467
  H      -3.960330      0.563196      1.746168
  H      -1.580919      0.492158      2.420136
  H       2.049069      1.410242     -2.317976
  H       2.442024      3.125469      0.770101
  H       2.461709      3.076621     -1.598836
  Br      0.017549     -3.160216      1.329228
  Br      2.075806     -4.639192      0.413181
  Br      3.942223     -5.979063     -0.411563
25
Coordinates from ORCA-job orca_input E -132.578294688342
  Br      3.119033     -0.791677      0.916017
  C       0.442976      0.098443      0.876022
  C       1.643966      0.122581      0.012854
  C       2.027114      1.548604     -0.256774
  O       2.114731      2.269664      0.880963
  C      -0.859471      0.096756      0.434673
  C      -1.215191     -0.068533     -0.928691
  C      -2.532990     -0.048981     -1.285701
  C      -3.511034      0.137839     -0.306794
  C      -3.189241      0.291264      1.037458
  C      -1.873582      0.269288      1.411197
  C       2.206489      1.998955     -1.489430
  H       0.611529      0.214086      1.940341
  H       1.496968     -0.399022     -0.922980
  H      -0.455993     -0.237414     -1.677274
  H      -2.822127     -0.169183     -2.319093
  H      -4.552570      0.131350     -0.600211
  H      -3.968768      0.434905      1.770707
  H      -1.592431      0.377809      2.449987
  H       2.098826      1.331685     -2.330750
  H       2.365532      3.180047      0.694271
  H       2.487784      3.028262     -1.669206
  Br      0.015881     -3.146185      1.331395
  Br      2.048507     -4.643360      0.425961
  Br      3.894064     -6.027185     -0.394941
25
Coordinates from ORCA-job orca_input E -132.578285519549
  Br      3.133571     -0.717766      0.984693
  C       0.442996      0.113912      0.895445
  C       1.649854      0.140875      0.037536
  C       2.015800      1.559060     -0.285394
  O       2.079034      2.325147      0.824397
  C      -0.855958      0.105039      0.449364
  C      -1.202119      0.015540     -0.925414
  C      -2.518023      0.031243     -1.287376
  C      -3.504606      0.104157     -0.301314
  C      -3.192051      0.207841      1.050464
  C      -1.877927      0.200960      1.428965
  C       2.246930      1.953168     -1.527709
  H       0.605364      0.192407      1.964187
  H       1.516851     -0.421838     -0.876740
  H      -0.437564     -0.051552     -1.685004
  H      -2.801664     -0.060888     -2.325199
  H      -4.543074      0.135405     -0.603531
  H      -3.978977      0.252197      1.788486
  H      -1.601209      0.277971      2.471119
  H       2.175246      1.247150     -2.340919
  H       2.329165      3.228479      0.604875
  H       2.494697      2.983866     -1.746764
  Br      0.002799     -3.131098      1.360731
  Br      2.000223     -4.633392      0.444387
  Br      3.820641     -6.057885     -0.399285
25
Coordinates from ORCA-job orca_input E -132.578399869319
  Br      3.150044     -0.684275      1.017941
  C       0.455485      0.128900      0.903551
  C       1.667873      0.154878      0.050346
  C       2.018913      1.570723     -0.299133
  O       2.056631      2.358070      0.798009
  C      -0.839922      0.122622      0.452809
  C      -1.180461      0.060800     -0.925053
  C      -2.496787      0.050364     -1.286869
  C      -3.487808      0.103522     -0.303234
  C      -3.181458      0.149305      1.052596
  C      -1.868897      0.169305      1.431511
  C       2.240038      1.950182     -1.545973
  H       0.612253      0.205233      1.973080
  H       1.541672     -0.425404     -0.854802
  H      -0.411834      0.012075     -1.681139
  H      -2.777847      0.019262     -2.329004
  H      -4.525503      0.055364     -0.605463
  H      -3.971185      0.191793      1.787818
  H      -1.598576      0.203425      2.478065
  H       2.178507      1.231662     -2.349364
  H       2.283840      3.262907      0.560976
  H       2.494130      2.976793     -1.778761
  Br     -0.028173     -3.137350      1.401336
  Br      1.935312     -4.638190      0.463314
  Br      3.733752     -6.091965     -0.412557
25
Coordinates from ORCA-job orca_input E -132.578503532562
  Br      3.158229     -0.667594      1.033668
  C       0.462820      0.137875      0.911768
  C       1.676542      0.161586      0.060148
  C       2.020214      1.576775     -0.298762
  O       2.042673      2.372551      0.793682
  C      -0.831828      0.122416      0.459123
  C      -1.170562      0.047563     -0.917086
  C      -2.483807      0.037666     -1.286691
  C      -3.478431      0.082509     -0.308001
  C      -3.176442      0.156484      1.047316
  C      -1.865023      0.174309      1.432256
  C       2.235898      1.952273     -1.547586
  H       0.618013      0.221525      1.981296
  H       1.553385     -0.424803     -0.841629
  H      -0.398062     -0.006847     -1.668280
  H      -2.760013     -0.021725     -2.328946
  H      -4.515343      0.078769     -0.616901
  H      -3.969033      0.186304      1.779939
  H      -1.596446      0.216009      2.478574
  H       2.181893      1.229924     -2.347958
  H       2.258857      3.278421      0.550268
  H       2.485742      2.978403     -1.785572
  Br     -0.048741     -3.166751      1.436560
  Br      1.902983     -4.642343      0.454194
  Br      3.696484     -6.081302     -0.471381
25
Coordinates from ORCA-job orca_input E -132.578528990715
  Br      3.156146     -0.652418      1.053982
  C       0.461028      0.147557      0.920112
  C       1.676035      0.166566      0.071469
  C       2.016810      1.580875     -0.292742
  O       2.046016      2.378952      0.798275
  C      -0.832553      0.114068      0.464825
  C      -1.168594      0.010784     -0.909923
  C      -2.479556     -0.000264     -1.286094
  C      -3.477222      0.082011     -0.313629
  C      -3.178876      0.180065      1.040815
  C      -1.869002      0.195964      1.431512
  C       2.247830      1.949858     -1.541194
  H       0.614041      0.238862      1.989442
  H       1.557294     -0.424916     -0.827542
  H      -0.392738     -0.057086     -1.656575
  H      -2.751307     -0.081306     -2.328022
  H      -4.513260      0.057292     -0.624581
  H      -3.973766      0.236688      1.769334
  H      -1.600711      0.271525      2.476035
  H       2.199714      1.224848     -2.339387
  H       2.272275      3.281844      0.553036
  H       2.477648      2.979108     -1.784646
  Br     -0.054459     -3.198617      1.473011
  Br      1.889453     -4.639367      0.427448
  Br      3.677756     -6.042896     -0.564963
25
Coordinates from ORCA-job orca_input E -132.578570548294
  Br      3.153555     -0.654034      1.071431
  C       0.461576      0.156036      0.926130
  C       1.679337      0.167570      0.082006
  C       2.023675      1.580836     -0.283186
  O       2.051955      2.380497      0.806580
  C      -0.830120      0.114457      0.465931
  C      -1.162640     -0.017951     -0.907736
  C      -2.472850     -0.037317     -1.286439
  C      -3.472828      0.067760     -0.318032
  C      -3.177725      0.197495      1.034521
  C      -1.869075      0.219083      1.428243
  C       2.241167      1.951410     -1.533952
  H       0.610512      0.269370      1.993780
  H       1.562372     -0.424425     -0.816869
  H      -0.384498     -0.109703     -1.649706
  H      -2.742022     -0.140905     -2.327007
  H      -4.508222      0.044813     -0.631355
  H      -3.974163      0.274046      1.759545
  H      -1.603508      0.313898      2.472111
  H       2.186885      1.227174     -2.332359
  H       2.275502      3.283611      0.559840
  H       2.484407      2.977591     -1.776784
  Br     -0.055100     -3.204871      1.503311
  Br      1.874439     -4.627733      0.404038
  Br      3.647371     -6.008708     -0.644039
25
Coordinates from ORCA-job orca_input E -132.578591369852
  Br      3.151050     -0.647520      1.088373
  C       0.460572      0.165715      0.931897
  C       1.680580      0.171782      0.091042
  C       2.027058      1.583316     -0.278362
  O       2.055289      2.386958      0.808364
  C      -0.830087      0.114181      0.468821
  C      -1.159510     -0.039197     -0.903690
  C      -2.468789     -0.064440     -1.284984
  C      -3.470904      0.054612     -0.320315
  C      -3.179001      0.202666      1.031061
  C      -1.871202      0.230365      1.427558
  C       2.251439      1.948236     -1.529788
  H       0.606375      0.291601      1.998545
  H       1.565777     -0.423073     -0.806152
  H      -0.379759     -0.141875     -1.642666
  H      -2.735509     -0.183355     -2.324554
  H      -4.505662      0.025917     -0.635393
  H      -3.977078      0.289092      1.753150
  H      -1.608018      0.338200      2.470695
  H       2.199424      1.220879     -2.325436
  H       2.283549      3.288094      0.558851
  H       2.491831      2.974095     -1.776319
  Br     -0.054433     -3.194719      1.524798
  Br      1.856780     -4.610560      0.383319
  Br      3.610228     -5.980970     -0.708814
25
Coordinates from ORCA-job orca_input E -132.578608327603
  Br      3.149014     -0.641928      1.102820
  C       0.460521      0.173803      0.936786
  C       1.682165      0.175584      0.098640
  C       2.031437      1.585303     -0.274749
  O       2.059545      2.392672      0.809134
  C      -0.828924      0.114292      0.471536
  C      -1.155086     -0.052400     -0.900319
  C      -2.463607     -0.083789     -1.283779
  C      -3.467872      0.042271     -0.322105
  C      -3.179044      0.203718      1.028388
  C      -1.872064      0.237478      1.427087
  C       2.254203      1.946445     -1.527670
  H       0.603754      0.308994      2.002637
  H       1.569009     -0.422218     -0.796696
  H      -0.373638     -0.159841     -1.636940
  H      -2.728046     -0.213040     -2.322698
  H      -4.501976      0.008324     -0.638847
  H      -3.978681      0.294802      1.748176
  H      -1.610710      0.357117      2.469371
  H       2.200620      1.216751     -2.321055
  H       2.288666      3.292733      0.556609
  H       2.498882      2.970602     -1.777000
  Br     -0.056402     -3.185729      1.537265
  Br      1.839953     -4.598223      0.367658
  Br      3.578282     -5.963724     -0.754250
25
Coordinates from ORCA-job orca_input E -132.578625307898
  Br      3.146360     -0.636034      1.117743
  C       0.459839      0.181720      0.941160
  C       1.683336      0.179088      0.106138
  C       2.034297      1.587084     -0.271603
  O       2.063053      2.398223      0.809371
  C      -0.828284      0.115776      0.473395
  C      -1.151654     -0.064504     -0.897532
  C      -2.459510     -0.101999     -1.282625
  C      -3.465553      0.030594     -0.323638
  C      -3.179424      0.204231      1.025912
  C      -1.873159      0.244613      1.426455
  C       2.260587      1.943144     -1.525509
  H       0.600278      0.328137      2.005870
  H       1.572423     -0.421880     -0.787271
  H      -0.368973     -0.179004     -1.631850
  H      -2.722029     -0.240944     -2.320781
  H      -4.499090     -0.007345     -0.641839
  H      -3.980438      0.300417      1.743489
  H      -1.614117      0.371465      2.468510
  H       2.207714      1.210508     -2.316182
  H       2.295291      3.296653      0.553984
  H       2.504299      2.966589     -1.778433
  Br     -0.057048     -3.178920      1.553709
  Br      1.824201     -4.585115      0.353047
  Br      3.547603     -5.942496     -0.801520
25
Coordinates from ORCA-job orca_input E -132.578651987072
  Br      3.143814     -0.628231      1.139899
  C       0.460547      0.194006      0.948361
  C       1.686683      0.184450      0.117849
  C       2.041117      1.589656     -0.266684
  O       2.069983      2.406835      0.809639
  C      -0.825768      0.115047      0.477702
  C      -1.143914     -0.084644     -0.891906
  C      -2.450466     -0.130920     -1.280449
  C      -3.459998      0.011717     -0.326553
  C      -3.178953      0.204812      1.021332
  C      -1.874113      0.254345      1.425562
  C       2.264781      1.939372     -1.522990
  H       0.597066      0.351878      2.011938
  H       1.578409     -0.421144     -0.772644
  H      -0.358747     -0.204276     -1.622909
  H      -2.709247     -0.285138     -2.317390
  H      -4.492394     -0.035096     -0.647304
  H      -3.982594      0.307568      1.735046
  H      -1.618445      0.399268      2.466026
  H       2.209655      1.202800     -2.309814
  H       2.303564      3.303488      0.549386
  H       2.513691      2.960315     -1.780795
  Br     -0.065379     -3.169553      1.578411
  Br      1.793881     -4.562620      0.330970
  Br      3.496827     -5.903933     -0.872683
25
Coordinates from ORCA-job orca_input E -132.578703670346
  Br      3.137855     -0.612466      1.179712
  C       0.458373      0.210068      0.960213
  C       1.688984      0.189300      0.137171
  C       2.048669      1.589051     -0.261032
  O       2.078042      2.417761      0.806228
  C      -0.824901      0.118872      0.483556
  C      -1.136267     -0.108884     -0.883244
  C      -2.440971     -0.169052     -1.276015
  C      -3.455105     -0.013528     -0.329311
  C      -3.180831      0.205397      1.015832
  C      -1.877958      0.269187      1.424711
  C       2.281161      1.923371     -1.520314
  H       0.588429      0.394526      2.020343
  H       1.586399     -0.426975     -0.746558
  H      -0.347989     -0.243376     -1.608252
  H      -2.694574     -0.342876     -2.311148
  H      -4.485960     -0.068879     -0.653805
  H      -3.987978      0.318159      1.724033
  H      -1.628152      0.429835      2.464324
  H       2.227873      1.177846     -2.298686
  H       2.319138      3.309807      0.537399
  H       2.528666      2.941682     -1.789090
  Br     -0.074643     -3.159733      1.612932
  Br      1.756709     -4.522304      0.294373
  Br      3.435027     -5.826792     -0.983369
25
Coordinates from ORCA-job orca_input E -132.578820874395
  Br      3.131636     -0.597756      1.233697
  C       0.459187      0.234532      0.977073
  C       1.696324      0.195737      0.164937
  C       2.063784      1.587663     -0.252573
  O       2.091991      2.432866      0.801456
  C      -0.820196      0.117749      0.494135
  C      -1.119093     -0.149167     -0.868550
  C      -2.420445     -0.227606     -1.269298
  C      -3.443043     -0.053039     -0.335288
  C      -3.181086      0.205416      1.005035
  C      -1.882029      0.289421      1.422447
  C       2.294135      1.903161     -1.517490
  H       0.580380      0.439668      2.034359
  H       1.599520     -0.433745     -0.710004
  H      -0.325100     -0.292317     -1.586018
  H      -2.664636     -0.433609     -2.300789
  H      -4.470912     -0.127526     -0.665472
  H      -3.994545      0.331763      1.703652
  H      -1.641617      0.485337      2.458140
  H       2.237720      1.146333     -2.284566
  H       2.337866      3.319600      0.519959
  H       2.553374      2.914731     -1.799974
  Br     -0.097264     -3.146453      1.676811
  Br      1.687520     -4.453524      0.245609
  Br      3.326528     -5.689235     -1.147286
25
Coordinates from ORCA-job orca_input E -132.579059944882
  Br      3.122386     -0.570028      1.320962
  C       0.455891      0.256127      1.004376
  C       1.702687      0.193041      0.208815
  C       2.079902      1.570743     -0.243329
  O       2.106925      2.444388      0.786870
  C      -0.817019      0.120281      0.508586
  C      -1.099351     -0.199935     -0.845952
  C      -2.395978     -0.305002     -1.256280
  C      -3.429672     -0.102960     -0.341404
  C      -3.184115      0.207901      0.990261
  C      -1.890454      0.315891      1.419450
  C       2.328286      1.847991     -1.514656
  H       0.562921      0.515024      2.051387
  H       1.617011     -0.462104     -0.648266
  H      -0.298282     -0.372074     -1.548831
  H      -2.627130     -0.547816     -2.282807
  H      -4.453504     -0.193591     -0.680351
  H      -4.005946      0.353981      1.675043
  H      -1.664269      0.548227      2.450782
  H       2.276524      1.069400     -2.259728
  H       2.368393      3.319622      0.484618
  H       2.584486      2.851945     -1.824422
  Br     -0.128826     -3.132310      1.767088
  Br      1.597879     -4.321015      0.168110
  Br      3.191253     -5.407729     -1.390321
25
Coordinates from ORCA-job orca_input E -132.579533085459
  Br      3.113059     -0.532187      1.440620
  C       0.456766      0.289790      1.040536
  C       1.717205      0.189547      0.268615
  C       2.110367      1.543632     -0.236483
  O       2.118469      2.464451      0.751631
  C      -0.808458      0.117194      0.532864
  C      -1.064302     -0.258600     -0.811482
  C      -2.352484     -0.394753     -1.239684
  C      -3.404212     -0.175973     -0.350072
  C      -3.184835      0.191175      0.971744
  C      -1.900095      0.340478      1.415350
  C       2.368555      1.765573     -1.517322
  H       0.545870      0.568203      2.084189
  H       1.643387     -0.504069     -0.559239
  H      -0.250306     -0.430869     -1.499261
  H      -2.561839     -0.686956     -2.258029
  H      -4.420778     -0.301334     -0.699804
  H      -4.019477      0.355922      1.636531
  H      -1.695161      0.618786      2.439616
  H       2.322074      0.955275     -2.227858
  H       2.386915      3.324447      0.413661
  H       2.649000      2.750529     -1.864048
  Br     -0.177907     -3.107015      1.890094
  Br      1.447667     -4.113344      0.071612
  Br      2.960519     -4.969902     -1.693780
25
Coordinates from ORCA-job orca_input E -132.580267994950
  Br      3.121763     -0.505008      1.526341
  C       0.462298      0.280418      1.074333
  C       1.731602      0.164913      0.320002
  C       2.116099      1.501692     -0.233719
  O       2.094422      2.464778      0.712762
  C      -0.794202      0.102933      0.551178
  C      -1.027867     -0.315109     -0.784803
  C      -2.309961     -0.475685     -1.223744
  C      -3.374627     -0.226810     -0.359039
  C      -3.175585      0.187411      0.951821
  C      -1.898274      0.345392      1.413948
  C       2.416689      1.668592     -1.514584
  H       0.535080      0.618494      2.100774
  H       1.669691     -0.556974     -0.484634
  H      -0.204788     -0.523373     -1.451646
  H      -2.503472     -0.792057     -2.238021
  H      -4.385927     -0.362702     -0.720236
  H      -4.020085      0.362532      1.601189
  H      -1.709570      0.664863      2.429321
  H       2.403075      0.826880     -2.188724
  H       2.368788      3.310386      0.344212
  H       2.676713      2.644334     -1.900021
  Br     -0.222953     -3.087093      2.015531
  Br      1.299525     -3.865551     -0.005198
  Br      2.731565     -4.433256     -1.937041
25
Coordinates from ORCA-job orca_input E -132.581008322819
  Br      3.128944     -0.471341      1.613287
  C       0.465516      0.269047      1.105522
  C       1.742066      0.128859      0.368755
  C       2.128518      1.440839     -0.238003
  O       2.077826      2.447725      0.660515
  C      -0.785000      0.082075      0.571114
  C      -0.999557     -0.364758     -0.756224
  C      -2.274641     -0.521658     -1.216903
  C      -3.350738     -0.256409     -0.371046
  C      -3.168586      0.180033      0.936354
  C      -1.896855      0.354495      1.409648
  C       2.436909      1.552920     -1.524458
  H       0.525147      0.596132      2.136748
  H       1.691906     -0.631060     -0.401590
  H      -0.166789     -0.570619     -1.411060
  H      -2.452323     -0.870987     -2.223302
  H      -4.357505     -0.398509     -0.742837
  H      -4.021414      0.387811      1.564910
  H      -1.724672      0.678700      2.426373
  H       2.435761      0.681825     -2.160056
  H       2.347096      3.278859      0.257294
  H       2.713440      2.508658     -1.945458
  Br     -0.241673     -3.080503      2.114180
  Br      1.191415     -3.592385     -0.070009
  Br      2.555209     -3.829749     -2.103755
25
Coordinates from ORCA-job orca_input E -132.581173976580
  Br      3.176906     -0.437302      1.664097
  C       0.486431      0.239952      1.137339
  C       1.773137      0.113547      0.410345
  C       2.114428      1.412379     -0.247645
  O       2.020109      2.450735      0.610891
  C      -0.759700      0.066270      0.581743
  C      -0.954424     -0.353219     -0.761497
  C      -2.225040     -0.521097     -1.231992
  C      -3.311518     -0.270304     -0.396854
  C      -3.149032      0.150997      0.916826
  C      -1.885790      0.308805      1.416655
  C       2.449313      1.481861     -1.531277
  H       0.531319      0.565047      2.168547
  H       1.740122     -0.662884     -0.344803
  H      -0.114862     -0.563845     -1.406482
  H      -2.390630     -0.836421     -2.251441
  H      -4.313020     -0.410220     -0.783540
  H      -4.011354      0.320864      1.543633
  H      -1.727855      0.639070      2.433541
  H       2.493031      0.585334     -2.129068
  H       2.269032      3.274659      0.180683
  H       2.684636      2.430906     -1.990586
  Br     -0.229234     -3.063496      2.249260
  Br      1.045928     -3.430272     -0.060711
  Br      2.288068     -3.491366     -2.177663
25
Coordinates from ORCA-job orca_input E -132.581124314369
  Br      3.195880     -0.378876      1.679639
  C       0.489047      0.234041      1.147842
  C       1.777103      0.123346      0.421396
  C       2.098426      1.416421     -0.256217
  O       1.969003      2.467446      0.582160
  C      -0.755292      0.073513      0.581295
  C      -0.948818     -0.295246     -0.776739
  C      -2.216400     -0.435780     -1.262265
  C      -3.304241     -0.237551     -0.413472
  C      -3.143366      0.119383      0.921206
  C      -1.880493      0.282830      1.421554
  C       2.437706      1.472526     -1.539568
  H       0.531447      0.515433      2.193488
  H       1.757351     -0.671071     -0.315015
  H      -0.108209     -0.444784     -1.437110
  H      -2.378546     -0.724878     -2.290203
  H      -4.305103     -0.366890     -0.805746
  H      -4.006864      0.279018      1.549191
  H      -1.727695      0.546703      2.458767
  H       2.505145      0.567072     -2.121261
  H       2.195201      3.290105      0.137220
  H       2.660010      2.417882     -2.011787
  Br     -0.159874     -3.088096      2.308607
  Br      1.064567     -3.515203     -0.011605
  Br      2.254017     -3.647345     -2.161379
25
Coordinates from ORCA-job orca_input E -132.581027212408
  Br      3.210073     -0.357032      1.685103
  C       0.488686      0.199901      1.164476
  C       1.773986      0.099490      0.435340
  C       2.075517      1.389059     -0.258534
  O       1.943748      2.446888      0.570019
  C      -0.752360      0.061165      0.588415
  C      -0.939230     -0.289565     -0.774012
  C      -2.205173     -0.419965     -1.266991
  C      -3.295838     -0.205998     -0.426166
  C      -3.139344      0.144947      0.909836
  C      -1.877438      0.275834      1.424991
  C       2.400796      1.435170     -1.546190
  H       0.530072      0.466185      2.213498
  H       1.761062     -0.705403     -0.290838
  H      -0.094317     -0.459976     -1.424269
  H      -2.363579     -0.684542     -2.301994
  H      -4.295878     -0.319758     -0.825410
  H      -4.005196      0.297308      1.536299
  H      -1.723015      0.546302      2.459857
  H       2.470538      0.524063     -2.118631
  H       2.158449      3.267452      0.115694
  H       2.611063      2.377818     -2.029228
  Br     -0.117376     -3.080215      2.331490
  Br      1.101971     -3.470120     -0.013398
  Br      2.282784     -3.539009     -2.159358
25
Coordinates from ORCA-job orca_input E -132.580886807221
  Br      3.213652     -0.385532      1.653807
  C       0.490923      0.195822      1.156409
  C       1.774104      0.103233      0.420980
  C       2.070289      1.405476     -0.250702
  O       1.938979      2.448248      0.596331
  C      -0.754679      0.057277      0.586565
  C      -0.948431     -0.309322     -0.770009
  C      -2.216764     -0.429415     -1.260076
  C      -3.303780     -0.193922     -0.420015
  C      -3.140875      0.169986      0.911689
  C      -1.876149      0.294332      1.421627
  C       2.390655      1.474628     -1.539104
  H       0.536047      0.470948      2.202522
  H       1.756030     -0.682169     -0.325985
  H      -0.106581     -0.495336     -1.419981
  H      -2.379876     -0.711151     -2.289842
  H      -4.305816     -0.300597     -0.816448
  H      -4.003374      0.346350      1.536444
  H      -1.716834      0.573741      2.453552
  H       2.460561      0.573905     -2.127405
  H       2.151470      3.276700      0.155822
  H       2.594949      2.425885     -2.006751
  Br     -0.134148     -3.073162      2.283569
  Br      1.142159     -3.540983     -0.019492
  Br      2.367488     -3.694941     -2.133509
25
Coordinates from ORCA-job orca_input E -132.580885099911
  Br      3.228295     -0.366953      1.664632
  C       0.495535      0.186909      1.166575
  C       1.780998      0.101707      0.432233
  C       2.062668      1.400560     -0.253091
  O       1.920677      2.449572      0.584391
  C      -0.748950      0.054693      0.589588
  C      -0.937109     -0.298112     -0.772070
  C      -2.203307     -0.414573     -1.268318
  C      -3.293907     -0.190231     -0.429733
  C      -3.136863      0.159619      0.906237
  C      -1.874362      0.282305      1.422393
  C       2.385715      1.460982     -1.540926
  H       0.538228      0.450568      2.216777
  H       1.768884     -0.689868     -0.308533
  H      -0.092545     -0.477835     -1.420568
  H      -2.362106     -0.687638     -2.301061
  H      -4.294220     -0.294397     -0.830962
  H      -4.002329      0.329670      1.528715
  H      -1.719999      0.549157      2.458321
  H       2.466486      0.555282     -2.120341
  H       2.125131      3.276089      0.136454
  H       2.579280      2.410292     -2.017520
  Br     -0.106305     -3.058084      2.319267
  Br      1.118824     -3.523423     -0.012373
  Br      2.301280     -3.666291     -2.150090
25
Coordinates from ORCA-job orca_input E -132.580762359880
  Br      3.234388     -0.363620      1.657305
  C       0.498840      0.176540      1.167468
  C       1.781899      0.098576      0.431221
  C       2.052737      1.398951     -0.254265
  O       1.899577      2.447153      0.582097
  C      -0.745100      0.049376      0.589653
  C      -0.934637     -0.295571     -0.773604
  C      -2.201069     -0.402334     -1.271287
  C      -3.290401     -0.174101     -0.432273
  C      -3.131443      0.169335      0.905163
  C      -1.868335      0.280310      1.423204
  C       2.373527      1.461789     -1.543166
  H       0.541641      0.435948      2.218352
  H       1.771731     -0.691038     -0.311934
  H      -0.090693     -0.474171     -1.423350
  H      -2.360802     -0.668508     -2.305699
  H      -4.291383     -0.269969     -0.834234
  H      -3.995946      0.342228      1.528106
  H      -1.711660      0.544666      2.459435
  H       2.462293      0.556735     -2.122090
  H       2.095475      3.275214      0.133397
  H       2.558467      2.412225     -2.020003
  Br     -0.109255     -3.083068      2.326317
  Br      1.132149     -3.543223     -0.000055
  Br      2.328000     -3.683442     -2.129758
25
Coordinates from ORCA-job orca_input E -132.580827542006
  Br      3.232612     -0.362395      1.661930
  C       0.497408      0.178958      1.168966
  C       1.781230      0.098646      0.433636
  C       2.055545      1.398030     -0.253009
  O       1.905192      2.447145      0.582824
  C      -0.746013      0.050985      0.590439
  C      -0.933781     -0.296752     -0.772353
  C      -2.199608     -0.406987     -1.270842
  C      -3.290135     -0.180047     -0.432964
  C      -3.132981      0.165836      0.904114
  C      -1.870567      0.280543      1.422729
  C       2.376912      1.459138     -1.541487
  H       0.539851      0.440672      2.219253
  H       1.770717     -0.693077     -0.307192
  H      -0.088854     -0.474366     -1.421070
  H      -2.358050     -0.675716     -2.304781
  H      -4.290528     -0.279672     -0.835327
  H      -3.998412      0.336537      1.526402
  H      -1.715198      0.546437      2.458772
  H       2.463233      0.553413     -2.119871
  H       2.103385      3.274488      0.133700
  H       2.565232      2.408863     -2.018822
  Br     -0.098726     -3.065361      2.327312
  Br      1.125606     -3.531484     -0.007117
  Br      2.305932     -3.673830     -2.145243
25
Coordinates from ORCA-job orca_input E -132.580867664298
  Br      3.231344     -0.359950      1.664073
  C       0.495497      0.179578      1.169749
  C       1.780150      0.099131      0.434565
  C       2.055963      1.398727     -0.251881
  O       1.907803      2.447520      0.584887
  C      -0.747814      0.052224      0.590907
  C      -0.934879     -0.297010     -0.771447
  C      -2.200511     -0.408881     -1.270195
  C      -3.291601     -0.181168     -0.433046
  C      -3.135162      0.166649      0.903673
  C      -1.873004      0.282194      1.422318
  C       2.378272      1.460092     -1.539723
  H       0.537903      0.439801      2.220336
  H       1.769923     -0.693468     -0.305289
  H      -0.089324     -0.477307     -1.418425
  H      -2.358503     -0.678704     -2.303900
  H      -4.291712     -0.281381     -0.835793
  H      -4.000934      0.337580      1.525469
  H      -1.717891      0.548174      2.458422
  H       2.463419      0.554550     -2.118724
  H       2.107608      3.274870      0.136362
  H       2.567738      2.410017     -2.016665
  Br     -0.086366     -3.050466      2.322682
  Br      1.130483     -3.532846     -0.013214
  Br      2.301599     -3.689925     -2.155139
25
Coordinates from ORCA-job orca_input E -132.580928443890
  Br      3.229157     -0.355367      1.668020
  C       0.492791      0.180866      1.170485
  C       1.778749      0.099939      0.435817
  C       2.057211      1.399324     -0.251017
  O       1.911840      2.448167      0.586467
  C      -0.750092      0.053896      0.591312
  C      -0.936330     -0.296075     -0.770852
  C      -2.201635     -0.409286     -1.270092
  C      -3.293418     -0.182052     -0.433478
  C      -3.137944      0.166187      0.903352
  C      -1.876205      0.282421      1.422274
  C       2.380316      1.460404     -1.538056
  H       0.534986      0.441303      2.221014
  H       1.769295     -0.694434     -0.302099
  H      -0.089995     -0.476481     -1.416617
  H      -2.359108     -0.680500     -2.303487
  H      -4.293143     -0.283842     -0.836533
  H      -4.004238      0.335542      1.524903
  H      -1.721459      0.547653      2.458656
  H       2.463529      0.554870     -2.117600
  H       2.113612      3.275285      0.138217
  H       2.572587      2.410245     -2.014723
  Br     -0.070376     -3.035797      2.319456
  Br      1.135983     -3.534227     -0.018545
  Br      2.293885     -3.708039     -2.166875
25
Coordinates from ORCA-job orca_input E -132.580995083851
  Br      3.227004     -0.350715      1.672977
  C       0.490694      0.181822      1.171472
  C       1.777610      0.100223      0.437994
  C       2.057711      1.399082     -0.250039
  O       1.913745      2.448410      0.587417
  C      -0.751538      0.054936      0.591872
  C      -0.936756     -0.295935     -0.770139
  C      -2.201743     -0.410614     -1.269960
  C      -3.294332     -0.183574     -0.434062
  C      -3.139951      0.165670      0.902766
  C      -1.878641      0.283011      1.421748
  C       2.382395      1.459229     -1.536130
  H       0.532435      0.442055      2.222076
  H       1.769065     -0.696101     -0.297791
  H      -0.089460     -0.476915     -1.414379
  H      -2.358621     -0.682810     -2.303170
  H      -4.293633     -0.286141     -0.837754
  H      -4.006776      0.334800      1.523686
  H      -1.724381      0.547366      2.458456
  H       2.464854      0.553418     -2.115564
  H       2.116886      3.275152      0.138954
  H       2.576315      2.408768     -2.013272
  Br     -0.053780     -3.021279      2.317494
  Br      1.139200     -3.531670     -0.024309
  Br      2.281698     -3.718188     -2.180342
25
Coordinates from ORCA-job orca_input E -132.581066437465
  Br      3.226706     -0.345308      1.678616
  C       0.489562      0.182471      1.173123
  C       1.777680      0.100562      0.441231
  C       2.058350      1.398852     -0.248425
  O       1.914719      2.448833      0.588578
  C      -0.751884      0.055024      0.592535
  C      -0.935566     -0.297182     -0.769404
  C      -2.199967     -0.413038     -1.270431
  C      -3.293664     -0.185811     -0.435880
  C      -3.140988      0.164499      0.900990
  C      -1.880376      0.282623      1.420921
  C       2.383840      1.457962     -1.533841
  H       0.530329      0.443797      2.223490
  H       1.770366     -0.697816     -0.292343
  H      -0.087150     -0.478260     -1.412078
  H      -2.355798     -0.686519     -2.303446
  H      -4.292374     -0.289477     -0.840595
  H      -4.008674      0.333103      1.520880
  H      -1.727057      0.547088      2.457773
  H       2.466120      0.551783     -2.112909
  H       2.118073      3.275236      0.139486
  H       2.578672      2.407146     -2.011763
  Br     -0.035301     -3.006441      2.319608
  Br      1.136942     -3.526051     -0.029397
  Br      2.257442     -3.723077     -2.196719
25
Coordinates from ORCA-job orca_input E -132.581135557665
  Br      3.227628     -0.340214      1.683474
  C       0.489220      0.182005      1.175226
  C       1.778393      0.100607      0.444717
  C       2.058161      1.398630     -0.246455
  O       1.914319      2.449037      0.590258
  C      -0.751428      0.054102      0.593399
  C      -0.933304     -0.299805     -0.768315
  C      -2.197070     -0.416241     -1.270925
  C      -3.292007     -0.187752     -0.438221
  C      -3.141227      0.164145      0.898550
  C      -1.881349      0.282620      1.419682
  C       2.383870      1.457143     -1.531427
  H       0.528820      0.444175      2.225398
  H       1.772310     -0.699340     -0.287173
  H      -0.083672     -0.482163     -1.408958
  H      -2.351667     -0.691153     -2.303736
  H      -4.290066     -0.291560     -0.844374
  H      -4.009820      0.333708      1.516931
  H      -1.729185      0.547314      2.456680
  H       2.466572      0.550757     -2.110249
  H       2.116919      3.275319      0.140523
  H       2.578077      2.406186     -2.010201
  Br     -0.017264     -2.991644      2.322457
  Br      1.133333     -3.519351     -0.034143
  Br      2.230441     -3.726527     -2.213118
25
Coordinates from ORCA-job orca_input E -132.581176306362
  Br      3.229590     -0.335543      1.686483
  C       0.489261      0.178868      1.177761
  C       1.779188      0.099717      0.447645
  C       2.055604      1.398298     -0.244184
  O       1.909503      2.448403      0.592664
  C      -0.751005      0.052192      0.594512
  C      -0.931701     -0.302598     -0.766896
  C      -2.194960     -0.416642     -1.271507
  C      -3.290713     -0.184605     -0.440828
  C      -3.141179      0.167905      0.896009
  C      -1.881753      0.283310      1.418761
  C       2.380406      1.457559     -1.529163
  H       0.527977      0.441524      2.227782
  H       1.774665     -0.700886     -0.283613
  H      -0.081148     -0.487385     -1.405519
  H      -2.348655     -0.692507     -2.304199
  H      -4.288336     -0.286286     -0.848558
  H      -4.010328      0.340139      1.512865
  H      -1.730081      0.548080      2.455848
  H       2.464913      0.551447     -2.108187
  H       2.109336      3.275186      0.142589
  H       2.572118      2.406997     -2.008231
  Br      0.002253     -2.979126      2.321913
  Br      1.138356     -3.520173     -0.038624
  Br      2.216690     -3.743874     -2.225323
25
Coordinates from ORCA-job orca_input E -132.581185026149
  Br      3.230207     -0.331706      1.686870
  C       0.488196      0.173833      1.179403
  C       1.778596      0.098175      0.448417
  C       2.050692      1.398119     -0.242955
  O       1.902522      2.447065      0.595079
  C      -0.752341      0.050601      0.595497
  C      -0.933195     -0.302528     -0.765788
  C      -2.196495     -0.411403     -1.271736
  C      -3.292151     -0.174796     -0.442154
  C      -3.142374      0.176068      0.895114
  C      -1.882813      0.284913      1.418870
  C       2.374259      1.459484     -1.527998
  H       0.526966      0.434277      2.229969
  H       1.775971     -0.702123     -0.283293
  H      -0.082334     -0.491404     -1.402593
  H      -2.350378     -0.686175     -2.304683
  H      -4.289758     -0.271476     -0.851093
  H      -4.011309      0.351783      1.511296
  H      -1.730410      0.547420      2.456453
  H       2.460825      0.554212     -2.108067
  H       2.099329      3.274813      0.145404
  H       2.562544      2.409908     -2.006567
  Br      0.020486     -2.971949      2.313899
  Br      1.159883     -3.533495     -0.041778
  Br      2.233082     -3.783618     -2.227565
25
Coordinates from ORCA-job orca_input E -132.581225212996
  Br      3.229701     -0.323883      1.690089
  C       0.485656      0.170257      1.180757
  C       1.777676      0.097796      0.449462
  C       2.047572      1.398224     -0.242827
  O       1.898273      2.447009      0.595502
  C      -0.754966      0.050019      0.596126
  C      -0.935775     -0.298890     -0.765973
  C      -2.199131     -0.403738     -1.272823
  C      -3.294865     -0.166110     -0.443509
  C      -3.145146      0.180593      0.894867
  C      -1.885662      0.283891      1.419569
  C       2.371650      1.460170     -1.527200
  H       0.524350      0.427120      2.232280
  H       1.778025     -0.703805     -0.280892
  H      -0.084555     -0.489632     -1.401530
  H      -2.353197     -0.675461     -2.306529
  H      -4.292307     -0.258992     -0.853506
  H      -4.014108      0.356084      1.511122
  H      -1.732895      0.542265      2.458167
  H       2.459871      0.555098     -2.107554
  H       2.093592      3.275076      0.145613
  H       2.558495      2.411061     -2.005967
  Br      0.043790     -2.964286      2.309263
  Br      1.181402     -3.545224     -0.043032
  Br      2.242555     -3.824642     -2.231476
25
Coordinates from ORCA-job orca_input E -132.581291453551
  Br      3.230918     -0.316578      1.695308
  C       0.485114      0.166551      1.183706
  C       1.778028      0.096647      0.453206
  C       2.044265      1.396577     -0.241825
  O       1.891627      2.446335      0.594961
  C      -0.754885      0.048304      0.597396
  C      -0.934300     -0.297951     -0.765496
  C      -2.197145     -0.399528     -1.274494
  C      -3.293815     -0.161475     -0.446512
  C      -3.145520      0.182211      0.892862
  C      -1.886631      0.282279      1.419307
  C       2.368853      1.457402     -1.525731
  H       0.522922      0.422337      2.235525
  H       1.781116     -0.706848     -0.275079
  H      -0.082120     -0.488539     -1.399819
  H      -2.350247     -0.669701     -2.308751
  H      -4.290702     -0.251700     -0.858346
  H      -4.015121      0.358480      1.508015
  H      -1.734838      0.537679      2.458803
  H       2.459991      0.551731     -2.104832
  H       2.084155      3.274268      0.143574
  H       2.553248      2.408064     -2.006151
  Br      0.067874     -2.953029      2.312176
  Br      1.189532     -3.543455     -0.045253
  Br      2.227683     -3.840063     -2.242551
25
Coordinates from ORCA-job orca_input E -132.581352225733
  Br      3.233033     -0.309419      1.699178
  C       0.484741      0.162242      1.186543
  C       1.778529      0.095736      0.456497
  C       2.040211      1.395742     -0.240369
  O       1.883652      2.445848      0.595443
  C      -0.754958      0.046266      0.598598
  C      -0.933247     -0.297209     -0.765009
  C      -2.195682     -0.394864     -1.276046
  C      -3.293078     -0.155212     -0.449495
  C      -3.145895      0.185616      0.890767
  C      -1.887481      0.281149      1.419035
  C       2.364920      1.456453     -1.524009
  H       0.521743      0.416443      2.238801
  H       1.784438     -0.708944     -0.270527
  H      -0.080312     -0.489139     -1.397855
  H      -2.347983     -0.662619     -2.311054
  H      -4.289492     -0.241754     -0.863209
  H      -4.015950      0.363106      1.504940
  H      -1.736379      0.534214      2.459230
  H       2.459474      0.550613     -2.102366
  H       2.072763      3.274005      0.143006
  H       2.545860      2.407267     -2.005563
  Br      0.092472     -2.942737      2.312776
  Br      1.201274     -3.546412     -0.047596
  Br      2.217347     -3.866392     -2.251718
25
Coordinates from ORCA-job orca_input E -132.581402394839
  Br      3.235561     -0.302915      1.701769
  C       0.484554      0.155910      1.189795
  C       1.778919      0.094011      0.459480
  C       2.034375      1.394479     -0.238971
  O       1.872916      2.444584      0.596044
  C      -0.755070      0.043418      0.600209
  C      -0.932454     -0.296930     -0.763936
  C      -2.194476     -0.388325     -1.277470
  C      -3.292374     -0.145499     -0.452567
  C      -3.145983      0.191693      0.888714
  C      -1.887932      0.280589      1.419045
  C       2.358517      1.455687     -1.522599
  H       0.520945      0.408747      2.242491
  H       1.787918     -0.711228     -0.267000
  H      -0.078914     -0.490984     -1.395234
  H      -2.346089     -0.653926     -2.313137
  H      -4.288366     -0.226715     -0.868343
  H      -4.016244      0.372127      1.501739
  H      -1.737291      0.530613      2.460052
  H       2.457276      0.549899     -2.100361
  H       2.057511      3.273245      0.142659
  H       2.534698      2.406910     -2.005134
  Br      0.116626     -2.934375      2.310987
  Br      1.218753     -3.552372     -0.050329
  Br      2.216626     -3.898643     -2.257903
25
Coordinates from ORCA-job orca_input E -132.581386212579
  Br      3.237272     -0.301433      1.698413
  C       0.483711      0.148288      1.191150
  C       1.777111      0.090181      0.459307
  C       2.026407      1.392195     -0.238224
  O       1.861064      2.440862      0.597795
  C      -0.756691      0.041668      0.601393
  C      -0.935522     -0.294777     -0.763032
  C      -2.197909     -0.377590     -1.277541
  C      -3.294780     -0.129521     -0.452794
  C      -3.146813      0.203715      0.889316
  C      -1.888190      0.283250      1.420021
  C       2.348315      1.455935     -1.522424
  H       0.520894      0.399096      2.244219
  H       1.787469     -0.713841     -0.268588
  H      -0.082473     -0.492220     -1.393945
  H      -2.350548     -0.640566     -2.313741
  H      -4.291061     -0.203332     -0.869327
  H      -4.015992      0.389093      1.502380
  H      -1.736086      0.530195      2.461587
  H       2.450155      0.551131     -2.101107
  H       2.041141      3.270710      0.144819
  H       2.519740      2.408221     -2.004318
  Br      0.128767     -2.934584      2.296641
  Br      1.253338     -3.571023     -0.052653
  Br      2.260679     -3.945653     -2.249345
25
Coordinates from ORCA-job orca_input E -132.581392622002
  Br      3.230580     -0.306991      1.700041
  C       0.482995      0.160202      1.186842
  C       1.776667      0.095580      0.456630
  C       2.036737      1.396437     -0.239242
  O       1.879914      2.445480      0.598111
  C      -0.756680      0.046429      0.599183
  C      -0.935179     -0.293858     -0.764764
  C      -2.197777     -0.387502     -1.276489
  C      -3.295086     -0.147118     -0.449878
  C      -3.147544      0.189939      0.891400
  C      -1.888928      0.281098      1.419631
  C       2.360115      1.458955     -1.522866
  H       0.520041      0.415121      2.238867
  H       1.783684     -0.708724     -0.270849
  H      -0.081952     -0.485991     -1.397098
  H      -2.350442     -0.653172     -2.311983
  H      -4.291451     -0.230050     -0.864383
  H      -4.017274      0.368385      1.505763
  H      -1.737245      0.530947      2.460544
  H       2.454852      0.553996     -2.102624
  H       2.067141      3.274345      0.146138
  H       2.539877      2.410423     -2.003666
  Br      0.108728     -2.935679      2.301539
  Br      1.223908     -3.560912     -0.049545
  Br      2.234317     -3.917340     -2.251305
25
Coordinates from ORCA-job orca_input E -132.581404901511
  Br      3.226563     -0.310607      1.702467
  C       0.483647      0.170074      1.183749
  C       1.777616      0.100224      0.455440
  C       2.045406      1.399885     -0.239528
  O       1.892498      2.449591      0.597735
  C      -0.755430      0.049442      0.597316
  C      -0.933459     -0.295089     -0.766022
  C      -2.195869     -0.397726     -1.276108
  C      -3.293746     -0.163342     -0.448399
  C      -3.147006      0.177422      0.892124
  C      -1.888549      0.278971      1.418498
  C       2.371266      1.460815     -1.522592
  H       0.520258      0.429109      2.234811
  H       1.782314     -0.704298     -0.271711
  H      -0.079861     -0.482484     -1.399318
  H      -2.348075     -0.666266     -2.310924
  H      -4.290030     -0.254044     -0.861469
  H      -4.017300      0.350964      1.507088
  H      -1.737416      0.531782      2.458753
  H       2.462389      0.555412     -2.102250
  H       2.084561      3.277566      0.146151
  H       2.556675      2.411366     -2.003081
  Br      0.094078     -2.937201      2.310946
  Br      1.191625     -3.548530     -0.046843
  Br      2.197846     -3.883036     -2.256832
25
Coordinates from ORCA-job orca_input E -132.581428136171
  Br      3.220062     -0.315838      1.705228
  C       0.483375      0.181469      1.179958
  C       1.777779      0.105535      0.453698
  C       2.056065      1.403825     -0.239949
  O       1.911591      2.454034      0.598332
  C      -0.754825      0.052635      0.595536
  C      -0.932299     -0.298130     -0.766646
  C      -2.194559     -0.411560     -1.274465
  C      -3.293060     -0.182540     -0.445801
  C      -3.147261      0.164283      0.893400
  C      -1.889079      0.277681      1.417240
  C       2.383611      1.463061     -1.522405
  H       0.519204      0.444967      2.229543
  H       1.779332     -0.698842     -0.273436
  H      -0.078248     -0.481770     -1.400425
  H      -2.346402     -0.684766     -2.308093
  H      -4.289131     -0.282242     -0.857194
  H      -4.018100      0.333215      1.508892
  H      -1.738593      0.534987      2.456535
  H       2.467914      0.557388     -2.102809
  H       2.110651      3.280833      0.147528
  H       2.576907      2.412550     -2.002263
  Br      0.074710     -2.937008      2.316553
  Br      1.157406     -3.531505     -0.045629
  Br      2.162952     -3.842262     -2.263328
25
Coordinates from ORCA-job orca_input E -132.581555896201
  Br      3.215250     -0.316190      1.715429
  C       0.484628      0.194400      1.178936
  C       1.780598      0.112219      0.456874
  C       2.069136      1.407632     -0.238396
  O       1.931246      2.460144      0.598380
  C      -0.751469      0.053571      0.594642
  C      -0.924978     -0.307317     -0.766051
  C      -2.185826     -0.434692     -1.273673
  C      -3.286857     -0.210906     -0.446896
  C      -3.145350      0.145395      0.890413
  C      -1.888955      0.273982      1.414108
  C       2.399633      1.462467     -1.519852
  H       0.517809      0.466332      2.226641
  H       1.780617     -0.693941     -0.268087
  H      -0.069061     -0.486958     -1.398442
  H      -2.334839     -0.715109     -2.305759
  H      -4.281579     -0.322465     -0.858343
  H      -4.018325      0.309159      1.504297
  H      -1.741870      0.538451      2.452086
  H       2.478474      0.555349     -2.098970
  H       2.136583      3.284874      0.146502
  H       2.600697      2.409872     -2.001149
  Br      0.069484     -2.925753      2.336001
  Br      1.098131     -3.491442     -0.047545
  Br      2.066825     -3.769073     -2.291146
25
Coordinates from ORCA-job orca_input E -132.581654360661
  Br      3.214511     -0.309787      1.723838
  C       0.484568      0.197682      1.180740
  C       1.782017      0.115119      0.461217
  C       2.072348      1.409086     -0.236776
  O       1.936000      2.463241      0.598538
  C      -0.750171      0.052791      0.595161
  C      -0.920420     -0.310750     -0.765546
  C      -2.180383     -0.442569     -1.274316
  C      -3.283293     -0.220444     -0.449639
  C      -3.144821      0.138561      0.887269
  C      -1.889779      0.271473      1.412543
  C       2.404637      1.461390     -1.517323
  H       0.515880      0.470871      2.228285
  H       1.783863     -0.693489     -0.260917
  H      -0.063191     -0.490423     -1.396055
  H      -2.327369     -0.724370     -2.306301
  H      -4.276941     -0.335230     -0.862551
  H      -4.019290      0.300120      1.499667
  H      -1.745314      0.537535      2.450484
  H       2.482971      0.553262     -2.095168
  H       2.142661      3.286953      0.145263
  H       2.607069      2.407942     -2.000362
  Br      0.085708     -2.911872      2.345050
  Br      1.078446     -3.473129     -0.051163
  Br      2.010295     -3.753961     -2.311936
25
Coordinates from ORCA-job orca_input E -132.581755156560
  Br      3.219997     -0.298107      1.731744
  C       0.486135      0.193368      1.185801
  C       1.784797      0.115143      0.468146
  C       2.068101      1.408764     -0.233055
  O       1.923741      2.464154      0.599392
  C      -0.747678      0.049987      0.596204
  C      -0.914980     -0.310811     -0.765630
  C      -2.173881     -0.439349     -1.278150
  C      -3.278559     -0.217268     -0.456163
  C      -3.142831      0.138323      0.881919
  C      -1.888888      0.268080      1.411076
  C       2.400782      1.460058     -1.513567
  H       0.515271      0.467089      2.233284
  H       1.791513     -0.695713     -0.251624
  H      -0.056614     -0.489025     -1.395047
  H      -2.318501     -0.718735     -2.311158
  H      -4.271311     -0.329637     -0.871974
  H      -4.018655      0.299839      1.492391
  H      -1.746748      0.532520      2.449728
  H       2.485223      0.551095     -2.089170
  H       2.124696      3.288006      0.143918
  H       2.598060      2.406500     -1.998681
  Br      0.124650     -2.895537      2.355921
  Br      1.077420     -3.470289     -0.054128
  Br      1.958263     -3.778455     -2.331176
25
Coordinates from ORCA-job orca_input E -132.581908032572
  Br      3.226574     -0.278084      1.743778
  C       0.487540      0.186285      1.192901
  C       1.787699      0.114677      0.478567
  C       2.060826      1.407476     -0.229190
  O       1.908711      2.465211      0.599298
  C      -0.744436      0.045703      0.598112
  C      -0.907236     -0.310109     -0.765404
  C      -2.164765     -0.435028     -1.282854
  C      -3.272333     -0.213226     -0.464661
  C      -3.140623      0.137812      0.874970
  C      -1.888218      0.263544      1.408566
  C       2.395605      1.456321     -1.508678
  H       0.513621      0.456015      2.241928
  H       1.801822     -0.700298     -0.236496
  H      -0.046759     -0.490096     -1.391368
  H      -2.305993     -0.710221     -2.317445
  H      -4.263606     -0.321045     -0.884937
  H      -4.018276      0.299990      1.482737
  H      -1.749415      0.522815      2.448991
  H       2.488132      0.545826     -2.080852
  H       2.103705      3.288631      0.140305
  H       2.584563      2.402609     -1.997983
  Br      0.177323     -2.868417      2.366553
  Br      1.077858     -3.459138     -0.059874
  Br      1.887678     -3.807252     -2.356962
25
Coordinates from ORCA-job orca_input E -132.581967635627
  Br      3.233468     -0.250080      1.753414
  C       0.484739      0.163566      1.202670
  C       1.787463      0.108087      0.487568
  C       2.040105      1.402084     -0.227846
  O       1.869824      2.460957      0.596146
  C      -0.747823      0.040316      0.602247
  C      -0.910095     -0.295651     -0.765192
  C      -2.167507     -0.399080     -1.288562
  C      -3.275617     -0.172740     -0.472251
  C      -3.143795      0.158666      0.872220
  C      -1.891298      0.259155      1.411363
  C       2.376350      1.451470     -1.506087
  H       0.509915      0.420672      2.255642
  H       1.815323     -0.710603     -0.223349
  H      -0.049185     -0.480583     -1.388702
  H      -2.308099     -0.659548     -2.327030
  H      -4.266443     -0.262533     -0.897394
  H      -4.021157      0.322596      1.480028
  H      -1.752103      0.503186      2.455441
  H       2.485128      0.540356     -2.074777
  H       2.051714      3.285382      0.133367
  H       2.550962      2.399079     -1.999015
  Br      0.253554     -2.845515      2.351052
  Br      1.156214     -3.493566     -0.070968
  Br      1.918364     -3.945675     -2.359985
25
Coordinates from ORCA-job orca_input E -132.581796478572
  Br      3.217735     -0.261616      1.746001
  C       0.474444      0.167328      1.194790
  C       1.775785      0.104495      0.477842
  C       2.040756      1.399025     -0.233942
  O       1.885982      2.456544      0.595410
  C      -0.759797      0.049071      0.601226
  C      -0.928105     -0.283510     -0.766047
  C      -2.188688     -0.385626     -1.282131
  C      -3.292843     -0.159249     -0.459776
  C      -3.154299      0.170095      0.884516
  C      -1.899182      0.267845      1.416657
  C       2.377933      1.449660     -1.510832
  H       0.504026      0.418334      2.249082
  H       1.798585     -0.715186     -0.231706
  H      -0.070023     -0.473844     -1.391649
  H      -2.335362     -0.643737     -2.320301
  H      -4.285577     -0.246772     -0.880434
  H      -4.028480      0.332905      1.497310
  H      -1.755188      0.507111      2.461247
  H       2.476211      0.539600     -2.083633
  H       2.078254      3.280713      0.136004
  H       2.561928      2.397757     -2.000828
  Br      0.225485     -2.860698      2.309375
  Br      1.219234     -3.520751     -0.075629
  Br      2.061185     -3.989493     -2.332549
25
Coordinates from ORCA-job orca_input E -132.581906536074
  Br      3.229655     -0.250427      1.750764
  C       0.478963      0.152507      1.204521
  C       1.779909      0.097483      0.487509
  C       2.028609      1.391176     -0.230695
  O       1.859520      2.450702      0.593113
  C      -0.754737      0.040765      0.606111
  C      -0.919555     -0.290263     -0.761095
  C      -2.178487     -0.380893     -1.284133
  C      -3.284713     -0.146332     -0.467166
  C      -3.149408      0.180145      0.878133
  C      -1.895464      0.267684      1.415598
  C       2.363120      1.439741     -1.508863
  H       0.506055      0.405536      2.258162
  H       1.807996     -0.723268     -0.220856
  H      -0.059870     -0.483179     -1.383782
  H      -2.321899     -0.639242     -2.322749
  H      -4.276256     -0.225134     -0.892638
  H      -4.024608      0.352884      1.486677
  H      -1.753959      0.504822      2.461026
  H       2.472136      0.528276     -2.077158
  H       2.040056      3.274919      0.129339
  H       2.534487      2.387287     -2.003503
  Br      0.253932     -2.846767      2.314161
  Br      1.228121     -3.505095     -0.084949
  Br      2.036395     -3.983326     -2.347525
25
Coordinates from ORCA-job orca_input E -132.581897243030
  Br      3.232971     -0.250085      1.746969
  C       0.478351      0.143133      1.206435
  C       1.778434      0.091733      0.487716
  C       2.019801      1.386452     -0.230836
  O       1.845013      2.445166      0.592661
  C      -0.756725      0.039570      0.607197
  C      -0.923826     -0.285572     -0.760952
  C      -2.183310     -0.366379     -1.284544
  C      -3.288028     -0.127264     -0.467045
  C      -3.150538      0.193349      0.879361
  C      -1.895828      0.270223      1.417349
  C       2.352056      1.436614     -1.509812
  H       0.506509      0.392288      2.260854
  H       1.808005     -0.728475     -0.221399
  H      -0.065271     -0.481428     -1.384351
  H      -2.328167     -0.620110     -2.324121
  H      -4.280088     -0.198055     -0.892862
  H      -4.024469      0.369753      1.488630
  H      -1.752736      0.503656      2.463412
  H       2.465272      0.525664     -2.077954
  H       2.020258      3.270244      0.128511
  H       2.518055      2.384825     -2.004570
  Br      0.263560     -2.849572      2.301754
  Br      1.267820     -3.522843     -0.087222
  Br      2.092880     -4.022889     -2.335179
25
Coordinates from ORCA-job orca_input E -132.581910414903
  Br      3.232483     -0.253162      1.749137
  C       0.480564      0.150787      1.205471
  C       1.780864      0.095440      0.488007
  C       2.026883      1.389391     -0.229465
  O       1.853674      2.448465      0.593698
  C      -0.753758      0.040102      0.606445
  C      -0.919232     -0.291691     -0.760506
  C      -2.178017     -0.379856     -1.284314
  C      -3.283850     -0.142950     -0.467752
  C      -3.148241      0.183571      0.877549
  C      -1.894110      0.268971      1.415603
  C       2.359307      1.438541     -1.508795
  H       0.507727      0.406791      2.258174
  H       1.808289     -0.724286     -0.221728
  H      -0.059806     -0.483805     -1.383925
  H      -2.321453     -0.638593     -2.322867
  H      -4.275591     -0.220499     -0.893328
  H      -4.023197      0.358350      1.485759
  H      -1.752207      0.507945      2.460560
  H       2.469946      0.527281     -2.076765
  H       2.030963      3.273096      0.129666
  H       2.529041      2.386029     -2.003174
  Br      0.253597     -2.850455      2.313778
  Br      1.231461     -3.507818     -0.085375
  Br      2.044664     -3.981647     -2.345850
25
Coordinates from ORCA-job orca_input E -132.581896231531
  Br      3.235558     -0.255241      1.745451
  C       0.480192      0.142050      1.207965
  C       1.779518      0.089714      0.488597
  C       2.019278      1.384459     -0.229102
  O       1.841797      2.442794      0.593997
  C      -0.755179      0.038711      0.608218
  C      -0.922121     -0.290298     -0.758862
  C      -2.181217     -0.369368     -1.283699
  C      -3.285967     -0.127073     -0.467417
  C      -3.148773      0.196009      0.878508
  C      -1.894092      0.272798      1.417137
  C       2.348407      1.434931     -1.509486
  H       0.507841      0.397888      2.260557
  H       1.807582     -0.729004     -0.222414
  H      -0.063569     -0.484948     -1.382819
  H      -2.325670     -0.626731     -2.322485
  H      -4.278031     -0.198179     -0.893509
  H      -4.022687      0.375991      1.486663
  H      -1.751250      0.509824      2.462412
  H       2.461797      0.524142     -2.077508
  H       2.014031      3.268185      0.129543
  H       2.513580      2.382894     -2.004036
  Br      0.257992     -2.850899      2.299762
  Br      1.265332     -3.519028     -0.090226
  Br      2.095650     -4.009621     -2.337248
25
Coordinates from ORCA-job orca_input E -132.581964989224
  Br      3.237623     -0.250193      1.752988
  C       0.484174      0.149391      1.209181
  C       1.784609      0.095226      0.492832
  C       2.026739      1.388493     -0.226479
  O       1.849307      2.448418      0.594515
  C      -0.749151      0.036435      0.607807
  C      -0.911713     -0.299393     -0.758439
  C      -2.169230     -0.387805     -1.285368
  C      -3.276782     -0.148718     -0.472013
  C      -3.144164      0.180856      0.872923
  C      -1.891164      0.267452      1.413672
  C       2.357094      1.436390     -1.506746
  H       0.508909      0.412039      2.260066
  H       1.813034     -0.724442     -0.217029
  H      -0.051080     -0.489651     -1.380870
  H      -2.310202     -0.650265     -2.323348
  H      -4.267650     -0.227617     -0.899572
  H      -4.020382      0.358058      1.478544
  H      -1.751526      0.510179      2.458089
  H       2.469917      0.524518     -2.073101
  H       2.022807      3.272782      0.128743
  H       2.524182      2.383270     -2.002623
  Br      0.261457     -2.842554      2.324700
  Br      1.208731     -3.489765     -0.088002
  Br      1.994460     -3.953101     -2.360473
25
Coordinates from ORCA-job orca_input E -132.581996185121
  Br      3.237239     -0.251183      1.756113
  C       0.486311      0.156562      1.208251
  C       1.787212      0.099119      0.493692
  C       2.033625      1.391595     -0.225309
  O       1.858549      2.452161      0.595282
  C      -0.745909      0.036094      0.606931
  C      -0.906413     -0.306100     -0.758238
  C      -2.163196     -0.402153     -1.285374
  C      -3.272087     -0.165296     -0.473216
  C      -3.141736      0.170177      0.870574
  C      -1.889524      0.265355      1.411431
  C       2.365004      1.438182     -1.505488
  H       0.509686      0.424408      2.257811
  H       1.814108     -0.720490     -0.216231
  H      -0.044821     -0.493666     -1.380162
  H      -2.302551     -0.669213     -2.322392
  H      -4.262419     -0.250431     -0.900870
  H      -4.019120      0.345897      1.474911
  H      -1.751490      0.512644      2.454977
  H       2.475537      0.525850     -2.071501
  H       2.034757      3.275914      0.129481
  H       2.535108      2.384398     -2.001469
  Br      0.254549     -2.841076      2.338438
  Br      1.169881     -3.470596     -0.085461
  Br      1.937699     -3.908154     -2.372181
25
Coordinates from ORCA-job orca_input E -132.581993499478
  Br      3.241267     -0.244125      1.753807
  C       0.484630      0.142147      1.211751
  C       1.785379      0.092667      0.495178
  C       2.020148      1.386445     -0.226079
  O       1.836621      2.446431      0.593519
  C      -0.748888      0.033357      0.608535
  C      -0.910946     -0.297904     -0.758665
  C      -2.168316     -0.380415     -1.287191
  C      -3.275858     -0.138800     -0.474839
  C      -3.143320      0.186555      0.870922
  C      -1.890547      0.266111      1.413720
  C       2.351442      1.434769     -1.506046
  H       0.509254      0.402111      2.264097
  H       1.817666     -0.727473     -0.214139
  H      -0.050316     -0.491069     -1.380081
  H      -2.308932     -0.638566     -2.326291
  H      -4.266484     -0.211695     -0.903955
  H      -4.019464      0.365831      1.476047
  H      -1.751154      0.504660      2.459074
  H       2.470112      0.522888     -2.071217
  H       2.006041      3.271120      0.126800
  H       2.512358      2.382107     -2.003162
  Br      0.280236     -2.838718      2.327598
  Br      1.223742     -3.493839     -0.089150
  Br      1.995332     -3.974596     -2.360236
25
Coordinates from ORCA-job orca_input E -132.582042135816
  Br      3.251492     -0.229030      1.752355
  C       0.484815      0.118883      1.218955
  C       1.784901      0.082558      0.500731
  C       1.998967      1.377602     -0.225410
  O       1.799287      2.437055      0.591275
  C      -0.749976      0.026385      0.611614
  C      -0.912731     -0.288304     -0.758931
  C      -2.170015     -0.349852     -1.291375
  C      -3.276550     -0.101485     -0.480007
  C      -3.142538      0.208373      0.868912
  C      -1.889757      0.264787      1.415794
  C       2.328416      1.427823     -1.505583
  H       0.509954      0.370020      2.274071
  H       1.826051     -0.739069     -0.206632
  H      -0.052848     -0.486953     -1.379715
  H      -2.310953     -0.595473     -2.333490
  H      -4.266915     -0.156612     -0.912293
  H      -4.017443      0.393459      1.474148
  H      -1.749596      0.491791      2.463598
  H       2.461131      0.516446     -2.068492
  H       1.955179      3.262866      0.121835
  H       2.473733      2.376316     -2.005382
  Br      0.323491     -2.828171      2.317247
  Br      1.291411     -3.517438     -0.095429
  Br      2.050494     -4.061977     -2.347795
25
Coordinates from ORCA-job orca_input E -132.582028426706
  Br      3.256618     -0.230332      1.744316
  C       0.484129      0.103354      1.221335
  C       1.782661      0.074063      0.499990
  C       1.985426      1.371045     -0.225697
  O       1.778363      2.428275      0.591996
  C      -0.752439      0.023595      0.613132
  C      -0.917979     -0.282174     -0.758624
  C      -2.175777     -0.328142     -1.291974
  C      -3.280208     -0.073525     -0.479793
  C      -3.143209      0.227109      0.870730
  C      -1.889627      0.268449      1.418008
  C       2.311040      1.424755     -1.506881
  H       0.510654      0.349772      2.277056
  H       1.826085     -0.745506     -0.209803
  H      -0.059795     -0.484761     -1.380694
  H      -2.318670     -0.567847     -2.335239
  H      -4.270984     -0.116601     -0.912607
  H      -4.016058      0.418859      1.476853
  H      -1.747751      0.488769      2.467037
  H       2.449549      0.514885     -2.070695
  H       1.926140      3.255624      0.122770
  H       2.447661      2.374549     -2.006266
  Br      0.333541     -2.828495      2.299711
  Br      1.348590     -3.541962     -0.098222
  Br      2.132043     -4.123759     -2.326436
25
Coordinates from ORCA-job orca_input E -132.582037624138
  Br      3.256033     -0.229286      1.748248
  C       0.486025      0.112145      1.220426
  C       1.785299      0.079734      0.500946
  C       1.992694      1.375810     -0.224735
  O       1.788345      2.433931      0.592391
  C      -0.749441      0.024949      0.612071
  C      -0.913210     -0.285356     -0.759291
  C      -2.170503     -0.340134     -1.292594
  C      -3.276351     -0.089953     -0.480925
  C      -3.141443      0.215301      0.868896
  C      -1.888391      0.265741      1.416313
  C       2.319227      1.428011     -1.505857
  H       0.511365      0.360964      2.275446
  H       1.827458     -0.740251     -0.208368
  H      -0.053905     -0.484577     -1.380905
  H      -2.311957     -0.583142     -2.335280
  H      -4.266857     -0.140093     -0.913645
  H      -4.015637      0.403228      1.474251
  H      -1.747723      0.489860      2.464705
  H       2.455159      0.517494     -2.069214
  H       1.938970      3.260619      0.122922
  H       2.459233      2.377165     -2.005428
  Br      0.327532     -2.828844      2.312349
  Br      1.310722     -3.530816     -0.094840
  Br      2.077358     -4.092499     -2.337880
25
Coordinates from ORCA-job orca_input E -132.582035101799
  Br      3.253666     -0.230134      1.751355
  C       0.486879      0.122383      1.218068
  C       1.786939      0.085622      0.500427
  C       2.001446      1.380994     -0.224163
  O       1.801357      2.439753      0.593084
  C      -0.747747      0.027797      0.610308
  C      -0.910794     -0.287466     -0.760460
  C      -2.167918     -0.351767     -1.292600
  C      -3.274663     -0.106653     -0.480442
  C      -3.141001      0.203454      0.868527
  C      -1.888112      0.264086      1.414842
  C       2.329514      1.431994     -1.505043
  H       0.511293      0.373767      2.272250
  H       1.827058     -0.734454     -0.208803
  H      -0.050825     -0.482895     -1.382410
  H      -2.308706     -0.598627     -2.334452
  H      -4.265181     -0.164775     -0.912151
  H      -4.016127      0.387032      1.473842
  H      -1.748124      0.492148      2.462489
  H       2.461610      0.520983     -2.068492
  H       1.956413      3.265876      0.124060
  H       2.474595      2.380621     -2.004147
  Br      0.318074     -2.831803      2.321426
  Br      1.276273     -3.523455     -0.091069
  Br      2.034080     -4.064481     -2.346447
25
Coordinates from ORCA-job orca_input E -132.581981096091
  Br      3.246979     -0.240576      1.749914
  C       0.485971      0.136752      1.212548
  C       1.785738      0.090611      0.495878
  C       2.014256      1.385071     -0.225281
  O       1.825016      2.444184      0.593834
  C      -0.748331      0.034845      0.607158
  C      -0.913715     -0.286998     -0.762617
  C      -2.171352     -0.363769     -1.290968
  C      -3.277681     -0.125819     -0.475704
  C      -3.143198      0.190685      0.871965
  C      -1.889490      0.265561      1.414070
  C       2.342920      1.434748     -1.506380
  H       0.510688      0.390285      2.265204
  H       1.819222     -0.728190     -0.215057
  H      -0.054115     -0.476304     -1.387310
  H      -2.313260     -0.616436     -2.331264
  H      -4.269026     -0.194962     -0.904023
  H      -4.018313      0.368924      1.478824
  H      -1.748748      0.499020      2.460515
  H       2.465295      0.523343     -2.071257
  H       1.988919      3.269565      0.126568
  H       2.498707      2.382525     -2.003573
  Br      0.290048     -2.843871      2.325007
  Br      1.245877     -3.519532     -0.082763
  Br      2.027594     -4.019663     -2.345290
25
Coordinates from ORCA-job orca_input E -132.581986459717
  Br      3.251298     -0.238398      1.746857
  C       0.486134      0.125435      1.215367
  C       1.785132      0.084749      0.496982
  C       2.004186      1.380378     -0.225029
  O       1.808333      2.438420      0.593965
  C      -0.749059      0.030660      0.609087
  C      -0.914497     -0.286575     -0.761149
  C      -2.172241     -0.352308     -1.291368
  C      -3.277834     -0.107996     -0.477287
  C      -3.142387      0.203538      0.871264
  C      -1.888600      0.267148      1.415286
  C       2.330851      1.432019     -1.506566
  H       0.511586      0.377423      2.268517
  H       1.821581     -0.734101     -0.213819
  H      -0.055451     -0.480307     -1.385157
  H      -2.314588     -0.601534     -2.332463
  H      -4.269109     -0.168198     -0.907123
  H      -4.016705      0.387493      1.477587
  H      -1.747329      0.496693      2.462486
  H       2.458772      0.521366     -2.071391
  H       1.965898      3.264765      0.126285
  H       2.479385      2.380671     -2.004187
  Br      0.301705     -2.840836      2.317448
  Br      1.279089     -3.527527     -0.087570
  Br      2.063852     -4.052979     -2.338024
25
Coordinates from ORCA-job orca_input E -132.581916701064
  Br      3.245692     -0.251309      1.740681
  C       0.483081      0.128150      1.211585
  C       1.781034      0.082732      0.491582
  C       2.006237      1.379292     -0.226573
  O       1.816543      2.436000      0.595490
  C      -0.753230      0.034696      0.608089
  C      -0.921810     -0.284270     -0.761335
  C      -2.180716     -0.350136     -1.288596
  C      -3.284388     -0.105041     -0.472107
  C      -3.145904      0.207860      0.875820
  C      -1.890868      0.272355      1.416839
  C       2.331612      1.432625     -1.508512
  H       0.510532      0.381812      2.264288
  H       1.813043     -0.734310     -0.221466
  H      -0.064205     -0.478386     -1.387284
  H      -2.325598     -0.600857     -2.328986
  H      -4.276682     -0.165994     -0.899541
  H      -4.018835      0.392479      1.483912
  H      -1.747487      0.503040      2.463479
  H       2.454034      0.522824     -2.075859
  H       1.977893      3.262880      0.130074
  H       2.484975      2.381729     -2.003660
  Br      0.284691     -2.850805      2.303596
  Br      1.298618     -3.538723     -0.086844
  Br      2.121737     -4.058644     -2.324673
25
Coordinates from ORCA-job orca_input E -132.581906983268
  Br      3.247344     -0.252368      1.737031
  C       0.482135      0.119445      1.212631
  C       1.779624      0.078443      0.490851
  C       1.998445      1.376752     -0.226656
  O       1.805732      2.431826      0.596969
  C      -0.755254      0.031470      0.609524
  C      -0.924330     -0.284183     -0.760371
  C      -2.183847     -0.341200     -1.287868
  C      -3.286336     -0.089808     -0.471926
  C      -3.146268      0.220185      0.876300
  C      -1.891035      0.274957      1.418287
  C       2.322064      1.432935     -1.508688
  H       0.510732      0.370358      2.266285
  H       1.813860     -0.737867     -0.222935
  H      -0.067842     -0.483824     -1.386740
  H      -2.329930     -0.588583     -2.328906
  H      -4.278703     -0.143044     -0.900115
  H      -4.018194      0.409673      1.484396
  H      -1.746832      0.503222      2.465317
  H       2.447631      0.524308     -2.077323
  H       1.963049      3.259909      0.132248
  H       2.470410      2.383317     -2.003173
  Br      0.290874     -2.848935      2.291709
  Br      1.332659     -3.548689     -0.092010
  Br      2.164014     -4.098299     -2.314838
25
Coordinates from ORCA-job orca_input E -132.581885716147
  Br      3.248611     -0.252545      1.734804
  C       0.480558      0.110160      1.214448
  C       1.777337      0.071787      0.490924
  C       1.991284      1.370357     -0.227718
  O       1.795407      2.425216      0.595476
  C      -0.758044      0.029201      0.611195
  C      -0.928669     -0.284075     -0.758665
  C      -2.188604     -0.331961     -1.286567
  C      -3.289657     -0.074041     -0.470815
  C      -3.147579      0.233115      0.877743
  C      -1.891872      0.278789      1.419981
  C       2.314084      1.426955     -1.509910
  H       0.510423      0.359193      2.268469
  H       1.813273     -0.744938     -0.222379
  H      -0.073658     -0.489171     -1.385233
  H      -2.336052     -0.577740     -2.327813
  H      -4.282244     -0.119955     -0.899320
  H      -4.018164      0.428283      1.485995
  H      -1.746362      0.504566      2.467366
  H       2.442608      0.518447     -2.078078
  H       1.949515      3.253622      0.130273
  H       2.458515      2.377552     -2.005129
  Br      0.293355     -2.851009      2.279607
  Br      1.368439     -3.550350     -0.098083
  Br      2.217494     -4.111457     -2.306571
25
Coordinates from ORCA-job orca_input E -132.581883777028
  Br      3.251182     -0.253099      1.730706
  C       0.479949      0.099765      1.216208
  C       1.775758      0.065705      0.491075
  C       1.982501      1.365669     -0.227619
  O       1.783589      2.419228      0.596650
  C      -0.759345      0.025577      0.612337
  C      -0.930540     -0.283918     -0.757968
  C      -2.190722     -0.322446     -1.286658
  C      -3.290671     -0.058046     -0.471733
  C      -3.147304      0.245559      0.877287
  C      -1.891618      0.280736      1.420826
  C       2.302733      1.424595     -1.510181
  H       0.510794      0.346293      2.271074
  H       1.813672     -0.750785     -0.222445
  H      -0.076747     -0.494278     -1.384366
  H      -2.338999     -0.564955     -2.328568
  H      -4.283143     -0.095917     -0.901228
  H      -4.016891      0.445492      1.485455
  H      -1.745538      0.503709      2.468705
  H       2.434326      0.517077     -2.079275
  H       1.933175      3.248580      0.131636
  H       2.442012      2.376190     -2.005090
  Br      0.303424     -2.847608      2.272062
  Br      1.402566     -3.553488     -0.101742
  Br      2.255837     -4.139634     -2.297149
25
Coordinates from ORCA-job orca_input E -132.581862256958
  Br      3.254750     -0.252833      1.726001
  C       0.479537      0.087780      1.217919
  C       1.774314      0.058803      0.490930
  C       1.972208      1.360143     -0.228081
  O       1.767923      2.412240      0.596826
  C      -0.760669      0.021492      0.613390
  C      -0.932861     -0.282624     -0.757470
  C      -2.193132     -0.309786     -1.287194
  C      -3.291627     -0.039143     -0.472642
  C      -3.146498      0.258795      0.877252
  C      -1.890718      0.282074      1.421920
  C       2.290481      1.421537     -1.510947
  H       0.511539      0.332012      2.273726
  H       1.814656     -0.757618     -0.222619
  H      -0.080394     -0.498062     -1.383782
  H      -2.342376     -0.547834     -2.330016
  H      -4.284016     -0.067478     -0.903030
  H      -4.014737      0.463928      1.485652
  H      -1.743458      0.500467      2.470518
  H       2.426992      0.515064     -2.080559
  H       1.911761      3.242634      0.131872
  H       2.422909      2.374139     -2.005801
  Br      0.312522     -2.846721      2.264717
  Br      1.440090     -3.558412     -0.104258
  Br      2.300804     -4.170596     -2.284323
25
Coordinates from ORCA-job orca_input E -132.581831044024
  Br      3.255275     -0.260632      1.717283
  C       0.477912      0.080066      1.215987
  C       1.771247      0.053270      0.486673
  C       1.966790      1.357257     -0.228627
  O       1.764938      2.406516      0.600585
  C      -0.763739      0.019691      0.612593
  C      -0.938997     -0.282012     -0.758433
  C      -2.200303     -0.301719     -1.286383
  C      -3.296348     -0.025275     -0.470549
  C      -3.147815      0.270778      0.879224
  C      -1.891217      0.286114      1.422561
  C       2.281696      1.423120     -1.511964
  H       0.511974      0.321296      2.272271
  H       1.810362     -0.760676     -0.229709
  H      -0.088740     -0.502378     -1.385996
  H      -2.352162     -0.537681     -2.329309
  H      -4.289317     -0.047271     -0.899898
  H      -4.014079      0.480554      1.488887
  H      -1.741842      0.503256      2.471150
  H       2.416853      0.518633     -2.085104
  H       1.907569      3.238581      0.138200
  H       2.412511      2.377476     -2.004033
  Br      0.309241     -2.849026      2.252546
  Br      1.475579     -3.569752     -0.103594
  Br      2.362610     -4.200186     -2.264362
25
Coordinates from ORCA-job orca_input E -132.581863794625
  Br      3.261054     -0.257647      1.713901
  C       0.479739      0.068766      1.218174
  C       1.772371      0.048095      0.488158
  C       1.958437      1.354126     -0.226408
  O       1.751616      2.401209      0.604451
  C      -0.761975      0.013346      0.612885
  C      -0.936676     -0.286511     -0.758183
  C      -2.197469     -0.297632     -1.288289
  C      -3.293180     -0.014256     -0.474491
  C      -3.144705      0.279760      0.875638
  C      -1.888683      0.286053      1.420932
  C       2.270421      1.423514     -1.510151
  H       0.513360      0.310675      2.274543
  H       1.814878     -0.764849     -0.229183
  H      -0.086931     -0.511676     -1.384640
  H      -2.348976     -0.532311     -2.331578
  H      -4.285503     -0.029156     -0.905604
  H      -4.010339      0.495433      1.484184
  H      -1.739676      0.501612      2.469908
  H       2.410180      0.520621     -2.084722
  H       1.888216      3.234679      0.142774
  H       2.393925      2.379269     -2.001452
  Br      0.326379     -2.838545      2.256699
  Br      1.492006     -3.565240     -0.105414
  Br      2.361531     -4.219334     -2.262134
25
Coordinates from ORCA-job orca_input E -132.581921502234
  Br      3.264358     -0.248511      1.719874
  C       0.482734      0.071375      1.220746
  C       1.776548      0.052806      0.492576
  C       1.960427      1.358253     -0.223762
  O       1.750558      2.406152      0.605315
  C      -0.757706      0.011176      0.613412
  C      -0.929001     -0.291271     -0.757597
  C      -2.188851     -0.307133     -1.289959
  C      -3.286888     -0.025098     -0.478812
  C      -3.141868      0.272211      0.871023
  C      -1.886989      0.282786      1.418611
  C       2.273814      1.426482     -1.507174
  H       0.513994      0.314243      2.276759
  H       1.821802     -0.760827     -0.223791
  H      -0.077488     -0.515425     -1.381923
  H      -2.337651     -0.543472     -2.333254
  H      -4.278306     -0.043260     -0.911865
  H      -4.009261      0.486776      1.477464
  H      -1.740615      0.501206      2.467423
  H       2.416315      0.523056     -2.080275
  H       1.886042      3.239200      0.142519
  H       2.395422      2.381868     -1.999785
  Br      0.339365     -2.828937      2.271457
  Br      1.461737     -3.554847     -0.107338
  Br      2.291510     -4.208810     -2.281643
25
Coordinates from ORCA-job orca_input E -132.581977032504
  Br      3.267832     -0.239433      1.726278
  C       0.485798      0.074689      1.223344
  C       1.780760      0.057659      0.497008
  C       1.963341      1.362351     -0.220959
  O       1.750570      2.411134      0.606197
  C      -0.753413      0.009585      0.613764
  C      -0.921553     -0.296543     -0.756864
  C      -2.180313     -0.317399     -1.291575
  C      -3.280603     -0.036857     -0.483051
  C      -3.138969      0.263957      0.866458
  C      -1.885182      0.279518      1.416311
  C       2.277994      1.429161     -1.504189
  H       0.514465      0.320471      2.278603
  H       1.828341     -0.756642     -0.218445
  H      -0.068308     -0.519191     -1.379315
  H      -2.326434     -0.556559     -2.334600
  H      -4.271182     -0.059000     -0.917851
  H      -4.008121      0.477240      1.470808
  H      -1.741416      0.501007      2.464854
  H       2.422716      0.525092     -2.075713
  H       1.885116      3.243680      0.142249
  H       2.398425      2.384014     -1.998085
  Br      0.350944     -2.820235      2.285750
  Br      1.429132     -3.543854     -0.109444
  Br      2.220060     -4.193844     -2.301534
25
Coordinates from ORCA-job orca_input E -132.581865616971
  Br      3.277621     -0.244031      1.715290
  C       0.487749      0.057188      1.221400
  C       1.783227      0.049250      0.493180
  C       1.948015      1.359613     -0.219724
  O       1.724466      2.401596      0.613413
  C      -0.754885     -0.000644      0.612048
  C      -0.922472     -0.299745     -0.758833
  C      -2.181826     -0.301044     -1.293628
  C      -3.278482     -0.008693     -0.486327
  C      -3.133176      0.283493      0.863640
  C      -1.879902      0.278919      1.417032
  C       2.256509      1.436757     -1.503715
  H       0.517873      0.305682      2.277573
  H       1.835349     -0.761542     -0.225746
  H      -0.072263     -0.532011     -1.381970
  H      -2.330221     -0.532829     -2.338049
  H      -4.268750     -0.014563     -0.922276
  H      -3.999990      0.505425      1.468283
  H      -1.733893      0.492661      2.466366
  H       2.410230      0.537470     -2.080416
  H       1.846313      3.238124      0.153184
  H       2.363176      2.395357     -1.993405
  Br      0.363342     -2.818819      2.279608
  Br      1.475329     -3.564551     -0.104876
  Br      2.266659     -4.263063     -2.272053
25
Coordinates from ORCA-job orca_input E -132.581857689539
  Br      3.269547     -0.248191      1.719111
  C       0.483428      0.065127      1.220174
  C       1.779002      0.049805      0.492495
  C       1.954369      1.357081     -0.223140
  O       1.736244      2.402814      0.606578
  C      -0.759057      0.006902      0.612589
  C      -0.929010     -0.293509     -0.757980
  C      -2.189102     -0.300763     -1.290348
  C      -3.285440     -0.013075     -0.480395
  C      -3.138948      0.280608      0.869377
  C      -1.884554      0.282098      1.419513
  C       2.266713      1.428569     -1.506640
  H       0.514438      0.310667      2.276475
  H       1.827288     -0.763522     -0.223857
  H      -0.078811     -0.522677     -1.382212
  H      -2.338720     -0.533798     -2.334286
  H      -4.276637     -0.024048     -0.914175
  H      -4.005550      0.498450      1.475757
  H      -1.737282      0.496971      2.468536
  H       2.415591      0.526621     -2.080444
  H       1.865104      3.237189      0.144348
  H       2.381612      2.385093     -1.998528
  Br      0.347502     -2.830604      2.267793
  Br      1.478962     -3.562746     -0.107485
  Br      2.303312     -4.235061     -2.273254
