25
Coordinates from ORCA-job orca_input_MEP E -132.581915854690
  Br      2.383259     -1.101353     -0.126822
  C       0.406285      0.538575      0.467602
  C       1.492604      0.618454     -0.518217
  C       2.419316      1.766855     -0.318785
  O       2.847171      1.870852      0.956480
  C      -0.895655      0.163176      0.234069
  C      -1.386470     -0.183425     -1.051970
  C      -2.697103     -0.530796     -1.202689
  C      -3.541029     -0.541333     -0.090692
  C      -3.087188     -0.211739      1.180548
  C      -1.773786      0.132604      1.348217
  C       2.733794      2.576798     -1.319150
  H       0.686608      0.792437      1.484010
  H       1.170746      0.559830     -1.547994
  H      -0.729788     -0.177010     -1.908585
  H      -3.084537     -0.799355     -2.174212
  H      -4.578508     -0.818609     -0.223722
  H      -3.762690     -0.236011      2.022550
  H      -1.386833      0.386603      2.325457
  H       2.331261      2.399762     -2.304686
  H       3.433727      2.626552      1.060438
  H       3.393819      3.420785     -1.169709
  Br     -1.093021     -3.284690      1.018586
  Br      1.226145     -4.438867      0.960402
  Br      3.491872     -5.530093      0.898874
25
Coordinates from ORCA-job orca_input_MEP E -132.581648608475
  Br      2.526867     -1.111602      0.053169
  C       0.416163      0.452246      0.524450
  C       1.524993      0.509497     -0.438410
  C       2.365043      1.730714     -0.289979
  O       2.750361      1.938876      0.986087
  C      -0.891683      0.129991      0.262624
  C      -1.362867     -0.234573     -1.026376
  C      -2.689167     -0.494110     -1.210884
  C      -3.568554     -0.394515     -0.131413
  C      -3.134977     -0.049101      1.143396
  C      -1.805945      0.200350      1.346870
  C       2.645069      2.498996     -1.331543
  H       0.681380      0.704942      1.544991
  H       1.229411      0.375039     -1.468647
  H      -0.678101     -0.315550     -1.856442
  H      -3.062665     -0.777125     -2.183536
  H      -4.619274     -0.597253     -0.292358
  H      -3.839434      0.013987      1.959250
  H      -1.434178      0.464995      2.327322
  H       2.278324      2.232324     -2.310715
  H       3.276065      2.741081      1.059573
  H       3.241410      3.394340     -1.222694
  Br     -0.908420     -3.348918      1.123958
  Br      1.397620     -4.510462      0.856061
  Br      3.662560     -5.554170      0.575245
25
Coordinates from ORCA-job orca_input_MEP E -132.580604299954
  Br      2.635235     -1.107528      0.178433
  C       0.423512      0.385239      0.568231
  C       1.547572      0.430693     -0.378505
  C       2.320999      1.700691     -0.270657
  O       2.674252      1.979052      1.001390
  C      -0.887917      0.102685      0.284925
  C      -1.347457     -0.270687     -1.006221
  C      -2.680336     -0.470695     -1.215311
  C      -3.577896     -0.298479     -0.160191
  C      -3.156751      0.056818      1.116635
  C      -1.821830      0.241346      1.346666
  C       2.577392      2.439294     -1.338631
  H       0.677250      0.635838      1.591985
  H       1.271528      0.242676     -1.405741
  H      -0.648762     -0.408659     -1.816784
  H      -3.045776     -0.761424     -2.188596
  H      -4.633904     -0.450279     -0.341687
  H      -3.876229      0.179248      1.912485
  H      -1.459626      0.512899      2.329013
  H       2.239959      2.115105     -2.310867
  H       3.156959      2.809524      1.049776
  H       3.127392      3.366538     -1.257987
  Br     -0.778646     -3.342718      1.174392
  Br      1.512733     -4.525617      0.773417
  Br      3.750349     -5.561562      0.363828
25
Coordinates from ORCA-job orca_input_MEP E -132.579543757786
  Br      2.730533     -1.092471      0.286117
  C       0.428879      0.327386      0.607838
  C       1.565773      0.364049     -0.325002
  C       2.278825      1.673155     -0.255168
  O       2.602953      2.008926      1.010914
  C      -0.885170      0.083479      0.303820
  C      -1.335363     -0.297161     -0.988770
  C      -2.671121     -0.448881     -1.218936
  C      -3.580545     -0.216878     -0.185527
  C      -3.169230      0.147234      1.092301
  C      -1.832368      0.278266      1.345377
  C       2.515940      2.385841     -1.344459
  H       0.671801      0.572774      1.635307
  H       1.307259      0.129219     -1.347267
  H      -0.627698     -0.482788     -1.781780
  H      -3.030395     -0.747351     -2.192072
  H      -4.638473     -0.327835     -0.384677
  H      -3.897952      0.317850      1.870759
  H      -1.477686      0.554981      2.329096
  H       2.205733      2.015330     -2.308962
  H       3.050820      2.859579      1.037011
  H       3.026105      3.337082     -1.288389
  Br     -0.666116     -3.340478      1.212205
  Br      1.607882     -4.535595      0.700246
  Br      3.819614     -5.565710      0.190020
25
Coordinates from ORCA-job orca_input_MEP E -132.578536762252
  Br      2.813462     -1.071948      0.382644
  C       0.432412      0.273748      0.645334
  C       1.580486      0.304811     -0.275148
  C       2.237487      1.645908     -0.241338
  O       2.532732      2.032324      1.017388
  C      -0.883366      0.068595      0.320731
  C      -1.325500     -0.318650     -0.972672
  C      -2.662008     -0.428180     -1.222019
  C      -3.579451     -0.143501     -0.208940
  C      -3.176321      0.229255      1.069034
  C      -1.839845      0.313245      1.343143
  C       2.459063      2.334315     -1.349090
  H       0.665047      0.511080      1.677012
  H       1.338879      0.028521     -1.291432
  H      -0.611693     -0.546924     -1.748896
  H      -3.016236     -0.734421     -2.194513
  H      -4.637308     -0.219514     -0.424028
  H      -3.910777      0.441963      1.831601
  H      -1.491314      0.594550      2.327745
  H       2.175180      1.924459     -2.305370
  H       2.951640      2.897871      1.022565
  H       2.932808      3.304847     -1.314984
  Br     -0.559834     -3.334061      1.243191
  Br      1.695671     -4.540172      0.631437
  Br      3.878788     -5.568119      0.036603
25
Coordinates from ORCA-job orca_input_MEP E -132.578624637132
  Br      2.851395     -1.034400      0.530833
  C       0.433391      0.261595      0.693704
  C       1.596399      0.274096     -0.209471
  C       2.204274      1.640589     -0.234823
  O       2.478435      2.096162      1.006612
  C      -0.875854      0.055685      0.353097
  C      -1.300729     -0.329133     -0.948664
  C      -2.634824     -0.398277     -1.227856
  C      -3.565280     -0.073007     -0.238037
  C      -3.179262      0.293866      1.046749
  C      -1.848317      0.336254      1.350838
  C       2.399095      2.291081     -1.369991
  H       0.650865      0.520260      1.724909
  H       1.376562     -0.053988     -1.215881
  H      -0.576717     -0.581979     -1.707467
  H      -2.975891     -0.697616     -2.207218
  H      -4.619452     -0.112423     -0.479071
  H      -3.923834      0.539679      1.789416
  H      -1.512564      0.614201      2.341285
  H       2.136354      1.830107     -2.310414
  H       2.850478      2.982732      0.971173
  H       2.826082      3.285321     -1.375770
  Br     -0.482178     -3.465586      1.294199
  Br      1.768742     -4.632972      0.562554
  Br      3.922829     -5.642246     -0.140706
25
Coordinates from ORCA-job orca_input_MEP E -132.578410426066
  Br      2.867855     -1.028517      0.553007
  C       0.433422      0.249427      0.703523
  C       1.598761      0.260224     -0.197613
  C       2.193574      1.632966     -0.231741
  O       2.460663      2.099954      1.006958
  C      -0.875879      0.052934      0.357394
  C      -1.298485     -0.332434     -0.945278
  C      -2.631777     -0.392142     -1.229114
  C      -3.563830     -0.055805     -0.244243
  C      -3.179962      0.312704      1.041355
  C      -1.849960      0.344342      1.350629
  C       2.384884      2.277315     -1.370891
  H       0.648058      0.504975      1.735954
  H       1.382148     -0.075486     -1.202278
  H      -0.572893     -0.594186     -1.700178
  H      -2.971794     -0.693064     -2.208859
  H      -4.617430     -0.088031     -0.489061
  H      -3.925275      0.567601      1.780299
  H      -1.515540      0.622859      2.341791
  H       2.129220      1.807289     -2.308653
  H       2.826963      2.988725      0.965826
  H       2.803701      3.275218     -1.381958
  Br     -0.453092     -3.460067      1.301456
  Br      1.791541     -4.632235      0.547025
  Br      3.935128     -5.644568     -0.175351
25
Coordinates from ORCA-job orca_input_MEP E -132.578194224495
  Br      2.884036     -1.022317      0.574818
  C       0.433296      0.236922      0.713239
  C       1.601144      0.246364     -0.185206
  C       2.182737      1.625174     -0.228643
  O       2.442443      2.103583      1.007418
  C      -0.875936      0.050186      0.361760
  C      -1.296292     -0.335581     -0.941610
  C      -2.629026     -0.385903     -1.230292
  C      -3.562154     -0.038526     -0.250388
  C      -3.180667      0.331594      1.035632
  C      -1.851437      0.352510      1.350165
  C       2.370712      2.263036     -1.371633
  H       0.645434      0.489394      1.746913
  H       1.388117     -0.097819     -1.187775
  H      -0.569599     -0.606184     -1.692407
  H      -2.967595     -0.688228     -2.210170
  H      -4.615174     -0.063529     -0.499073
  H      -3.926539      0.595472      1.770599
  H      -1.518629      0.631355      2.341865
  H       2.122027      1.784319     -2.306868
  H       2.803230      2.994336      0.960538
  H       2.780977      3.264629     -1.388421
  Br     -0.423055     -3.453266      1.308533
  Br      1.814596     -4.630706      0.531317
  Br      3.947355     -5.646817     -0.210308
25
Coordinates from ORCA-job orca_input_MEP E -132.577977058480
  Br      2.900154     -1.015826      0.595913
  C       0.433181      0.224057      0.722746
  C       1.603614      0.232618     -0.172129
  C       2.171607      1.616581     -0.224393
  O       2.423697      2.106590      1.007795
  C      -0.876219      0.047549      0.366194
  C      -1.294170     -0.338364     -0.937714
  C      -2.626691     -0.379475     -1.231530
  C      -3.560414     -0.021160     -0.256303
  C      -3.181083      0.350441      1.029342
  C      -1.852957      0.360750      1.349389
  C       2.356788      2.248841     -1.373123
  H       0.642994      0.473184      1.757872
  H       1.394723     -0.121095     -1.172500
  H      -0.567056     -0.617667     -1.684230
  H      -2.963442     -0.682964     -2.211175
  H      -4.612754     -0.038992     -0.509107
  H      -3.927734      0.623186      1.760367
  H      -1.521895      0.639677      2.341594
  H       2.114786      1.761190     -2.304894
  H       2.779298      2.999637      0.955272
  H       2.757727      3.253277     -1.395088
  Br     -0.391575     -3.444790      1.315412
  Br      1.837913     -4.628148      0.515661
  Br      3.959508     -5.649097     -0.245373
25
Coordinates from ORCA-job orca_input_MEP E -132.577762134040
  Br      2.916169     -1.009159      0.616687
  C       0.432897      0.211118      0.732325
  C       1.605959      0.218719     -0.159321
  C       2.160434      1.608059     -0.220685
  O       2.404912      2.109193      1.008194
  C      -0.876495      0.045165      0.370423
  C      -1.292374     -0.340718     -0.933975
  C      -2.624251     -0.372869     -1.232859
  C      -3.558764     -0.003970     -0.262296
  C      -3.181220      0.369014      1.023144
  C      -1.854466      0.368943      1.348680
  C       2.342733      2.234134     -1.374066
  H       0.640317      0.456488      1.768891
  H       1.401454     -0.144137     -1.157355
  H      -0.564728     -0.628493     -1.676379
  H      -2.959484     -0.677465     -2.212387
  H      -4.610205     -0.014884     -0.518998
  H      -3.928577      0.650368      1.750294
  H      -1.525021      0.647858      2.341404
  H       2.107626      1.738025     -2.302843
  H       2.755292      3.004188      0.950041
  H       2.734548      3.241755     -1.401608
  Br     -0.359324     -3.434969      1.322190
  Br      1.861285     -4.624925      0.500270
  Br      3.971285     -5.651440     -0.279773
25
Coordinates from ORCA-job orca_input_MEP E -132.577516473475
  Br      2.937462     -0.999890      0.645298
  C       0.432263      0.193211      0.745340
  C       1.608805      0.199380     -0.142649
  C       2.144952      1.595912     -0.215989
  O       2.379333      2.111734      1.008476
  C      -0.876951      0.042372      0.375659
  C      -1.289889     -0.343533     -0.929781
  C      -2.620691     -0.363814     -1.234837
  C      -3.556389      0.018983     -0.270481
  C      -3.181148      0.393975      1.015324
  C      -1.856223      0.380042      1.347737
  C       2.323334      2.214018     -1.375117
  H       0.635768      0.432858      1.783956
  H       1.409279     -0.174355     -1.137792
  H      -0.561236     -0.642679     -1.666817
  H      -2.954381     -0.670355     -2.214446
  H      -4.606610      0.016897     -0.532043
  H      -3.928983      0.686753      1.737669
  H      -1.528480      0.659032      2.341316
  H       2.097944      1.706661     -2.299769
  H       2.722724      3.008918      0.943296
  H       2.703852      3.225592     -1.409517
  Br     -0.315036     -3.417986      1.330987
  Br      1.893855     -4.619338      0.479298
  Br      3.986448     -5.654386     -0.325118
25
Coordinates from ORCA-job orca_input_MEP E -132.576920321287
  Br      2.982367     -0.978982      0.703383
  C       0.430429      0.153383      0.772403
  C       1.614469      0.157720     -0.106536
  C       2.111835      1.569669     -0.207392
  O       2.324315      2.114683      1.009922
  C      -0.878689      0.037177      0.385649
  C      -1.286018     -0.348545     -0.920910
  C      -2.614169     -0.344737     -1.238524
  C      -3.551267      0.067001     -0.287399
  C      -3.180539      0.446975      0.997978
  C      -1.859497      0.404435      1.344478
  C       2.282666      2.169272     -1.374510
  H       0.625869      0.379316      1.815376
  H       1.426631     -0.239699     -1.095143
  H      -0.556183     -0.672293     -1.646616
  H      -2.944904     -0.656010     -2.217742
  H      -4.599023      0.082950     -0.558729
  H      -3.928795      0.763488      1.710051
  H      -1.535424      0.683194      2.339370
  H       2.077658      1.640890     -2.292909
  H       2.653502      3.015829      0.929937
  H       2.639482      3.189868     -1.424909
  Br     -0.215969     -3.372209      1.347616
  Br      1.963742     -4.603300      0.434833
  Br      4.017514     -5.660075     -0.419675
25
Coordinates from ORCA-job orca_input_MEP E -132.576675061935
  Br      2.997442     -0.971101      0.722464
  C       0.429554      0.139308      0.781469
  C       1.616654      0.143820     -0.093503
  C       2.100433      1.559858     -0.202990
  O       2.305413      2.115646      1.010202
  C      -0.879489      0.035905      0.389108
  C      -1.285192     -0.350306     -0.917337
  C      -2.612739     -0.338326     -1.239483
  C      -3.549694      0.083934     -0.293295
  C      -3.180382      0.466009      0.991336
  C      -1.860634      0.413676      1.342658
  C       2.269171      2.154402     -1.375157
  H       0.622947      0.360566      1.825799
  H       1.433764     -0.263120     -1.079124
  H      -0.555823     -0.683600     -1.638480
  H      -2.942181     -0.651590     -2.217992
  H      -4.596438      0.106377     -0.568033
  H      -3.928789      0.790636      1.699292
  H      -1.538237      0.692091      2.337942
  H       2.070694      1.618972     -2.290103
  H       2.629619      3.018009      0.925478
  H       2.617121      3.176933     -1.429995
  Br     -0.181764     -3.357256      1.354267
  Br      1.989297     -4.599409      0.418287
  Br      4.029253     -5.661436     -0.452811
25
Coordinates from ORCA-job orca_input_MEP E -132.576517228021
  Br      3.015433     -0.959687      0.744992
  C       0.429026      0.122748      0.792615
  C       1.618439      0.127476     -0.080005
  C       2.086303      1.547976     -0.198758
  O       2.282954      2.114129      1.009886
  C      -0.879734      0.033731      0.392996
  C      -1.283102     -0.349687     -0.914690
  C      -2.608980     -0.329225     -1.241598
  C      -3.546508      0.101087     -0.299725
  C      -3.178631      0.483428      0.985619
  C      -1.860697      0.420598      1.342454
  C       2.252998      2.136366     -1.376768
  H       0.617924      0.338576      1.838753
  H       1.440846     -0.287606     -1.063394
  H      -0.553546     -0.689024     -1.633413
  H      -2.937439     -0.642364     -2.220949
  H      -4.592088      0.129563     -0.577777
  H      -3.926311      0.815830      1.690331
  H      -1.540254      0.698528      2.338726
  H       2.062950      1.591630     -2.287238
  H       2.600544      3.018485      0.919662
  H       2.590991      3.161205     -1.437145
  Br     -0.141623     -3.331267      1.357303
  Br      2.014250     -4.586716      0.403550
  Br      4.036257     -5.665779     -0.485429
25
Coordinates from ORCA-job orca_input_MEP E -132.576401662669
  Br      3.027149     -0.953162      0.755840
  C       0.428605      0.111413      0.798322
  C       1.619583      0.117179     -0.072215
  C       2.078030      1.541650     -0.198285
  O       2.269200      2.113006      1.010377
  C      -0.879970      0.033414      0.394599
  C      -1.282020     -0.348687     -0.913811
  C      -2.607692     -0.323827     -1.242821
  C      -3.545119      0.110791     -0.303105
  C      -3.177946      0.493577      0.982250
  C      -1.860816      0.425174      1.341361
  C       2.243451      2.125061     -1.375301
  H       0.615693      0.322725      1.845841
  H       1.444675     -0.302654     -1.054226
  H      -0.552728     -0.692117     -1.630496
  H      -2.935362     -0.637333     -2.222215
  H      -4.590275      0.142284     -0.582704
  H      -3.925417      0.829967      1.685288
  H      -1.541109      0.702174      2.338271
  H       2.058509      1.576532     -2.285728
  H       2.584222      3.017878      0.917417
  H       2.576777      3.152316     -1.440140
  Br     -0.118577     -3.309347      1.359764
  Br      2.031457     -4.579131      0.394094
  Br      4.039679     -5.668883     -0.502377
25
Coordinates from ORCA-job orca_input_MEP E -132.576237285210
  Br      3.040626     -0.945820      0.766641
  C       0.428247      0.098183      0.804838
  C       1.620835      0.105579     -0.063528
  C       2.068471      1.534088     -0.196984
  O       2.253449      2.111428      1.011206
  C      -0.880583      0.033229      0.395861
  C      -1.281548     -0.347169     -0.912468
  C      -2.606440     -0.317792     -1.244249
  C      -3.544156      0.121812     -0.306899
  C      -3.177012      0.505263      0.977916
  C      -1.861006      0.430880      1.340043
  C       2.233129      2.112620     -1.373824
  H       0.613271      0.303405      1.853729
  H       1.449635     -0.319845     -1.043773
  H      -0.552605     -0.695753     -1.627128
  H      -2.933667     -0.632078     -2.223302
  H      -4.588452      0.156362     -0.588174
  H      -3.924390      0.845978      1.679047
  H      -1.542262      0.706782      2.337357
  H       2.053911      1.560072     -2.283839
  H       2.566054      3.016405      0.915086
  H       2.560668      3.142286     -1.442916
  Br     -0.090265     -3.283194      1.362694
  Br      2.050471     -4.570091      0.384061
  Br      4.043620     -5.672628     -0.521396
25
Coordinates from ORCA-job orca_input_MEP E -132.576115917197
  Br      3.053576     -0.938575      0.777555
  C       0.427997      0.085054      0.811172
  C       1.622142      0.094441     -0.055390
  C       2.058971      1.526364     -0.194906
  O       2.237710      2.109868      1.011567
  C      -0.881204      0.032853      0.397298
  C      -1.280635     -0.345974     -0.911475
  C      -2.605111     -0.311760     -1.245621
  C      -3.542714      0.132591     -0.310785
  C      -3.176176      0.516653      0.974090
  C      -1.860812      0.435996      1.338954
  C       2.222758      2.101234     -1.373344
  H       0.610657      0.284237      1.861451
  H       1.454083     -0.335862     -1.034259
  H      -0.551932     -0.699086     -1.624112
  H      -2.931703     -0.626794     -2.224831
  H      -4.586592      0.170039     -0.593437
  H      -3.922992      0.861536      1.673605
  H      -1.542926      0.711242      2.336709
  H       2.049521      1.544223     -2.281917
  H       2.548214      3.015184      0.912618
  H       2.544922      3.132450     -1.445650
  Br     -0.065914     -3.256993      1.366748
  Br      2.071320     -4.563122      0.372952
  Br      4.046841     -5.675799     -0.538990
25
Coordinates from ORCA-job orca_input_MEP E -132.576015401227
  Br      3.067043     -0.930201      0.787103
  C       0.427792      0.070886      0.817233
  C       1.623487      0.083274     -0.047613
  C       2.048915      1.518535     -0.192795
  O       2.220883      2.107655      1.011889
  C      -0.881179      0.033432      0.398153
  C      -1.279419     -0.343618     -0.910839
  C      -2.603596     -0.305434     -1.247232
  C      -3.540953      0.143283     -0.314377
  C      -3.174743      0.527746      0.970050
  C      -1.860157      0.441606      1.337516
  C       2.212456      2.090134     -1.373254
  H       0.608228      0.263285      1.869162
  H       1.458510     -0.352045     -1.024895
  H      -0.551296     -0.701932     -1.621470
  H      -2.929724     -0.621453     -2.226085
  H      -4.584336      0.183638     -0.598611
  H      -3.921160      0.876606      1.668119
  H      -1.543250      0.715205      2.335963
  H       2.045130      1.528481     -2.279943
  H       2.529768      3.013270      0.911134
  H       2.528373      3.123003     -1.448263
  Br     -0.042382     -3.231711      1.372652
  Br      2.092733     -4.553247      0.362068
  Br      4.048877     -5.680398     -0.555662
25
Coordinates from ORCA-job orca_input_MEP E -132.575896132125
  Br      3.081644     -0.923776      0.787418
  C       0.427566      0.053683      0.821217
  C       1.624180      0.071984     -0.042659
  C       2.040366      1.513000     -0.194510
  O       2.206994      2.103424      1.014354
  C      -0.882026      0.034842      0.397016
  C      -1.279925     -0.339681     -0.911640
  C      -2.604094     -0.300017     -1.248775
  C      -3.541710      0.149495     -0.316673
  C      -3.174270      0.534290      0.967157
  C      -1.859818      0.445610      1.335236
  C       2.204496      2.079399     -1.367374
  H       0.606687      0.237468      1.874651
  H       1.461582     -0.365017     -1.019429
  H      -0.552495     -0.701889     -1.620954
  H      -2.930160     -0.616888     -2.227155
  H      -4.584698      0.190166     -0.600824
  H      -3.920398      0.884235      1.664897
  H      -1.543360      0.716862      2.334277
  H       2.042150      1.518060     -2.278490
  H       2.518128      3.007757      0.912082
  H       2.518244      3.115895     -1.446707
  Br     -0.015710     -3.181252      1.372334
  Br      2.112263     -4.537985      0.355562
  Br      4.044363     -5.689664     -0.561012
25
Coordinates from ORCA-job orca_input_MEP E -132.575827526028
  Br      3.095740     -0.919085      0.784470
  C       0.429150      0.037661      0.823676
  C       1.625561      0.062913     -0.040412
  C       2.031779      1.504848     -0.189048
  O       2.193450      2.098904      1.016165
  C      -0.883967      0.034596      0.395327
  C      -1.280140     -0.335833     -0.912822
  C      -2.605065     -0.294093     -1.250844
  C      -3.541855      0.154830     -0.318888
  C      -3.173961      0.539331      0.964618
  C      -1.858440      0.446811      1.333132
  C       2.196942      2.074993     -1.367949
  H       0.606584      0.210962      1.878199
  H       1.465149     -0.374624     -1.017862
  H      -0.552693     -0.696619     -1.623264
  H      -2.930295     -0.611500     -2.229586
  H      -4.586318      0.192401     -0.601322
  H      -3.918764      0.887998      1.663988
  H      -1.541816      0.718653      2.332149
  H       2.040829      1.512132     -2.276872
  H       2.507852      3.001738      0.913443
  H       2.508855      3.109175     -1.444103
  Br      0.005541     -3.129606      1.377123
  Br      2.128481     -4.530946      0.352285
  Br      4.037403     -5.695640     -0.561605
25
Coordinates from ORCA-job orca_input_MEP E -132.575786081590
  Br      3.108829     -0.915914      0.773094
  C       0.429136      0.021027      0.822610
  C       1.626798      0.056096     -0.042334
  C       2.025921      1.499960     -0.186055
  O       2.185728      2.093209      1.018228
  C      -0.883084      0.037327      0.391771
  C      -1.281307     -0.329318     -0.916096
  C      -2.606677     -0.290025     -1.252846
  C      -3.543997      0.153999     -0.318973
  C      -3.174113      0.537886      0.964056
  C      -1.857081      0.447441      1.330995
  C       2.194095      2.073963     -1.366874
  H       0.607787      0.186689      1.879253
  H       1.466475     -0.378601     -1.020860
  H      -0.553855     -0.689088     -1.627732
  H      -2.932093     -0.607746     -2.231237
  H      -4.588830      0.187398     -0.598895
  H      -3.917917      0.882505      1.665862
  H      -1.540014      0.716430      2.329853
  H       2.041043      1.512625     -2.275583
  H       2.505428      2.994243      0.917469
  H       2.506196      3.107120     -1.438416
  Br      0.018725     -3.073341      1.379645
  Br      2.136976     -4.520471      0.353615
  Br      4.025829     -5.703413     -0.550552
25
Coordinates from ORCA-job orca_input_MEP E -132.575869713461
  Br      3.128704     -0.910296      0.767158
  C       0.429656     -0.008711      0.826842
  C       1.628275      0.042370     -0.039342
  C       2.014475      1.489571     -0.179524
  O       2.171515      2.086389      1.021802
  C      -0.885617      0.035637      0.390272
  C      -1.283095     -0.326842     -0.916194
  C      -2.608980     -0.283794     -1.254638
  C      -3.546500      0.159943     -0.321815
  C      -3.174095      0.544055      0.959616
  C      -1.856210      0.450107      1.327431
  C       2.185469      2.066843     -1.364026
  H       0.607778      0.153181      1.884303
  H       1.470551     -0.390501     -1.019746
  H      -0.555782     -0.687053     -1.628132
  H      -2.933248     -0.603423     -2.232847
  H      -4.592046      0.189355     -0.599739
  H      -3.916504      0.886448      1.664140
  H      -1.538808      0.718804      2.326034
  H       2.039255      1.507037     -2.272802
  H       2.495646      2.985610      0.919336
  H       2.497177      3.098320     -1.433280
  Br      0.042524     -2.983024      1.379743
  Br      2.163165     -4.505168      0.346464
  Br      4.016695     -5.714857     -0.551055
25
Coordinates from ORCA-job orca_input_MEP E -132.577146932350
  Br      3.152841     -0.902001      0.756503
  C       0.430107     -0.066823      0.835491
  C       1.629581      0.024849     -0.035188
  C       2.000818      1.477767     -0.173403
  O       2.158129      2.077715      1.025137
  C      -0.888689      0.038917      0.386427
  C      -1.285909     -0.319484     -0.916245
  C      -2.612764     -0.276898     -1.255912
  C      -3.551965      0.163024     -0.324464
  C      -3.175354      0.548564      0.954975
  C      -1.854266      0.458615      1.320486
  C       2.178918      2.058710     -1.360255
  H       0.606993      0.115434      1.890465
  H       1.474855     -0.403263     -1.018143
  H      -0.559404     -0.687091     -1.626732
  H      -2.935586     -0.599719     -2.233644
  H      -4.596707      0.190800     -0.600730
  H      -3.916015      0.888370      1.662017
  H      -1.538689      0.719278      2.321452
  H       2.036557      1.499789     -2.268654
  H       2.486988      2.975055      0.922864
  H       2.488954      3.090761     -1.425723
  Br      0.073521     -2.857167      1.375906
  Br      2.189765     -4.487414      0.334582
  Br      4.007320     -5.727789     -0.547211
25
Coordinates from ORCA-job orca_input_MEP E -132.579004459987
  Br      3.155992     -0.921662      0.749978
  C       0.422917     -0.134844      0.846196
  C       1.618533      0.003335     -0.033475
  C       1.993992      1.457347     -0.162074
  O       2.152486      2.048175      1.041994
  C      -0.906283      0.025437      0.382829
  C      -1.310985     -0.371544     -0.900030
  C      -2.639449     -0.308629     -1.239749
  C      -3.565848      0.182656     -0.326368
  C      -3.176414      0.598787      0.937151
  C      -1.853695      0.495156      1.302838
  C       2.184649      2.044570     -1.335026
  H       0.596686      0.096633      1.890202
  H       1.467836     -0.417672     -1.019113
  H      -0.595277     -0.792330     -1.592113
  H      -2.968581     -0.661920     -2.205552
  H      -4.608775      0.229990     -0.602540
  H      -3.906425      0.975717      1.638858
  H      -1.531124      0.776837      2.297087
  H       2.042552      1.502196     -2.254652
  H       2.488625      2.944901      0.943463
  H       2.509247      3.075132     -1.389435
  Br      0.081638     -2.764753      1.357179
  Br      2.248435     -4.475599      0.277631
  Br      4.099265     -5.607916     -0.605279
25
Coordinates from ORCA-job orca_input_MEP E -132.593763970800
  Br      3.186687     -0.914886      0.741695
  C       0.425659     -0.270908      0.878059
  C       1.615159     -0.019785     -0.020540
  C       1.974691      1.438772     -0.150783
  O       2.136845      2.040811      1.047600
  C      -0.916899      0.017737      0.383055
  C      -1.317232     -0.371080     -0.893308
  C      -2.648181     -0.299210     -1.240330
  C      -3.575808      0.190470     -0.331785
  C      -3.179461      0.608232      0.927171
  C      -1.851079      0.506782      1.291167
  C       2.174002      2.030397     -1.326281
  H       0.595888      0.068798      1.893633
  H       1.475689     -0.434617     -1.010866
  H      -0.602494     -0.797514     -1.585006
  H      -2.971524     -0.655374     -2.207647
  H      -4.618154      0.236009     -0.606067
  H      -3.906208      0.984556      1.633908
  H      -1.531927      0.781247      2.289830
  H       2.038958      1.490788     -2.248605
  H       2.477921      2.935110      0.941182
  H       2.499134      3.061653     -1.381103
  Br      0.130276     -2.532609      1.329584
  Br      2.287762     -4.477008      0.256708
  Br      4.100295     -5.618369     -0.611273
25
Coordinates from ORCA-job orca_input_MEP E -132.614135734310
  Br      3.266913     -0.816298      0.910873
  C       0.416084     -0.425385      0.986003
  C       1.607544     -0.121317      0.094941
  C       1.852820      1.338225     -0.108602
  O       1.930950      2.010508      1.062565
  C      -0.923335     -0.043552      0.429802
  C      -1.330696     -0.451435     -0.835628
  C      -2.637224     -0.259021     -1.241277
  C      -3.549022      0.349055     -0.392437
  C      -3.141672      0.787297      0.854544
  C      -1.832695      0.590690      1.264250
  C       2.042682      1.877880     -1.304349
  H       0.559477      0.018686      1.964567
  H       1.531172     -0.620857     -0.863495
  H      -0.640656     -0.969718     -1.488702
  H      -2.953619     -0.615487     -2.211024
  H      -4.577127      0.469797     -0.699954
  H      -3.847663      1.257255      1.525044
  H      -1.522384      0.899628      2.255293
  H       1.977617      1.276367     -2.196309
  H       2.238431      2.909987      0.915873
  H       2.291830      2.925389     -1.406318
  Br      0.279728     -2.373986      1.385632
  Br      2.785563     -4.252034      0.060163
  Br      4.175284     -5.761675     -0.961455
25
Coordinates from ORCA-job orca_input_MEP E -132.616378682760
  Br      3.251983     -0.807950      1.046770
  C       0.393186     -0.488275      1.056269
  C       1.590807     -0.188194      0.173015
  C       1.786526      1.268372     -0.085447
  O       1.815368      1.988778      1.058548
  C      -0.927977     -0.083006      0.471460
  C      -1.333031     -0.512996     -0.787463
  C      -2.611617     -0.243991     -1.237195
  C      -3.498791      0.460268     -0.437458
  C      -3.093877      0.912136      0.805359
  C      -1.811836      0.641649      1.257349
  C       1.956430      1.767257     -1.302742
  H       0.527798     -0.028016      2.028378
  H       1.548592     -0.730288     -0.764543
  H      -0.662844     -1.097979     -1.403977
  H      -2.925587     -0.606728     -2.205780
  H      -4.506114      0.646384     -0.780169
  H      -3.780325      1.458156      1.437698
  H      -1.503067      0.972945      2.241260
  H       1.927856      1.123151     -2.166368
  H       2.060996      2.901180      0.878987
  H       2.145471      2.821890     -1.448011
  Br      0.272215     -2.418820      1.459329
  Br      3.226569     -3.990115     -0.089066
  Br      4.151268     -5.765808     -1.206202
25
Coordinates from ORCA-job orca_input_MEP E -132.618624653263
  Br      3.238647     -0.815755      1.134906
  C       0.375942     -0.539699      1.111516
  C       1.576386     -0.241189      0.231161
  C       1.736798      1.211808     -0.068383
  O       1.732082      1.967384      1.053081
  C      -0.930982     -0.116362      0.508037
  C      -1.334848     -0.563458     -0.745151
  C      -2.585431     -0.234929     -1.232102
  C      -3.445928      0.545291     -0.474472
  C      -3.043329      1.007340      0.765318
  C      -1.788756      0.677616      1.254193
  C       1.887965      1.677518     -1.301140
  H       0.505341     -0.073746      2.081721
  H       1.553118     -0.809424     -0.691470
  H      -0.683612     -1.199661     -1.330581
  H      -2.897478     -0.604030     -2.199028
  H      -4.431013      0.783974     -0.848259
  H      -3.709327      1.613065      1.364447
  H      -1.479891      1.024913      2.232389
  H       1.884132      1.003643     -2.142687
  H       1.916622      2.887403      0.841754
  H       2.030208      2.734066     -1.482072
  Br      0.256998     -2.465229      1.515657
  Br      3.489902     -3.800420     -0.207260
  Br      4.146453     -5.670119     -1.371576
25
Coordinates from ORCA-job orca_input_MEP E -132.619918717591
  Br      3.229703     -0.814264      1.204539
  C       0.361187     -0.579595      1.159305
  C       1.563541     -0.284546      0.281921
  C       1.691146      1.163691     -0.054169
  O       1.660621      1.949084      1.046651
  C      -0.934228     -0.146097      0.542419
  C      -1.337094     -0.606821     -0.705598
  C      -2.559331     -0.228404     -1.226871
  C      -3.392445      0.616470     -0.507918
  C      -2.991685      1.086926      0.729727
  C      -1.764986      0.706849      1.251992
  C       1.825410      1.600014     -1.299026
  H       0.486323     -0.113560      2.129574
  H       1.554204     -0.872922     -0.628062
  H      -0.705890     -1.286041     -1.263285
  H      -2.870154     -0.602980     -2.192719
  H      -4.354706      0.900327     -0.911119
  H      -3.637129      1.743467      1.297936
  H      -1.456343      1.067755      2.224741
  H       1.841702      0.901187     -2.120939
  H       1.793469      2.871210      0.806747
  H       1.928101      2.656163     -1.512617
  Br      0.247212     -2.505947      1.563830
  Br      3.648689     -3.670485     -0.299228
  Br      4.172680     -5.551480     -1.517833
25
Coordinates from ORCA-job orca_input_MEP E -132.620569699822
  Br      3.220826     -0.806388      1.268397
  C       0.346546     -0.612723      1.204393
  C       1.551775     -0.321005      0.329780
  C       1.648369      1.121133     -0.041427
  O       1.595979      1.933109      1.039410
  C      -0.938838     -0.171251      0.574845
  C      -1.340920     -0.644376     -0.668316
  C      -2.534199     -0.222206     -1.221861
  C      -3.338992      0.679216     -0.539473
  C      -2.940466      1.157026      0.696398
  C      -1.742589      0.732892      1.250341
  C       1.766564      1.528200     -1.297275
  H       0.467430     -0.146415      2.174806
  H       1.554354     -0.929013     -0.567215
  H      -0.729752     -1.361118     -1.200195
  H      -2.843377     -0.601819     -2.186657
  H      -4.277059      1.002867     -0.970835
  H      -3.564263      1.857916      1.235444
  H      -1.433637      1.105463      2.218047
  H       1.800038      0.806783     -2.099503
  H       1.681911      2.853803      0.773705
  H       1.833590      2.581079     -1.541726
  Br      0.236904     -2.540067      1.610681
  Br      3.765991     -3.568717     -0.383800
  Br      4.213815     -5.434387     -1.657966
25
Coordinates from ORCA-job orca_input_MEP E -132.620767942371
  Br      3.209658     -0.793646      1.334027
  C       0.331010     -0.645349      1.249173
  C       1.541187     -0.351380      0.377126
  C       1.608021      1.083279     -0.029452
  O       1.533245      1.920118      1.030826
  C      -0.944849     -0.191776      0.605382
  C      -1.348060     -0.678011     -0.632302
  C      -2.511366     -0.215535     -1.216426
  C      -3.285263      0.737311     -0.569717
  C      -2.889205      1.222280      0.663863
  C      -1.721639      0.758417      1.248934
  C       1.711246      1.457977     -1.296511
  H       0.446303     -0.176339      2.219615
  H       1.557172     -0.980105     -0.505933
  H      -0.757431     -1.429600     -1.139186
  H      -2.818296     -0.600549     -2.179388
  H      -4.197042      1.096627     -1.027513
  H      -3.488816      1.962796      1.175592
  H      -1.410408      1.140934      2.212015
  H       1.760904      0.714618     -2.077259
  H       1.573943      2.836375      0.740665
  H       1.744258      2.504227     -1.570848
  Br      0.225343     -2.569575      1.651689
  Br      3.865892     -3.481800     -0.467848
  Br      4.264192     -5.321296     -1.796524
