25
Coordinates from ORCA-job orca_input E -132.581857689539
  Br          3.26954713185530     -0.24819136820037      1.71911090555937
  C           0.48342778366541      0.06512740019227      1.22017386243098
  C           1.77900154548690      0.04980476064741      0.49249470040133
  C           1.95436944157595      1.35708140413320     -0.22314044202979
  O           1.73624362940106      2.40281384093213      0.60657809604561
  C          -0.75905694371345      0.00690231722580      0.61258937695913
  C          -0.92900985423688     -0.29350885134270     -0.75798033531138
  C          -2.18910185881197     -0.30076322840752     -1.29034833327016
  C          -3.28544008944823     -0.01307504651426     -0.48039474683863
  C          -3.13894846051647      0.28060750062650      0.86937702730912
  C          -1.88455383197024      0.28209801984200      1.41951253420671
  C           2.26671291123738      1.42856940830580     -1.50663973138467
  H           0.51443821798428      0.31066740689881      2.27647462099972
  H           1.82728824834782     -0.76352246204612     -0.22385695214381
  H          -0.07881079517225     -0.52267694139068     -1.38221182362132
  H          -2.33872008187486     -0.53379823760841     -2.33428557611169
  H          -4.27663666220268     -0.02404768182827     -0.91417548638903
  H          -4.00555029579014      0.49844979117046      1.47575727304064
  H          -1.73728215985899      0.49697060722081      2.46853561009395
  H           2.41559068153641      0.52662065173541     -2.08044447091144
  H           1.86510449274701      3.23718883010213      0.14434817394063
  H           2.38161202443652      2.38509339906265     -1.99852776908899
  Br          0.34750162109344     -2.83060449373671      2.26779297794874
  Br          1.47896157433127     -3.56274588338800     -0.10748509075954
  Br          2.30331172989741     -4.23506114363235     -2.27325440107548
