25
Coordinates from ORCA-job orca_input_NEB-CI_converged E -132.575830372248
  Br          3.10882928299759     -0.91591389865921      0.77309374823229
  C           0.42913637708879      0.02102712591101      0.82261039885395
  C           1.62679762990228      0.05609626203327     -0.04233354672401
  C           2.02592108498636      1.49996003109955     -0.18605471281288
  O           2.18572836510783      2.09320862921759      1.01822803988094
  C          -0.88308355938277      0.03732709818928      0.39177076096285
  C          -1.28130747430486     -0.32931766979348     -0.91609573410862
  C          -2.60667651800406     -0.29002534180179     -1.25284643826660
  C          -3.54399709708582      0.15399924351701     -0.31897271463930
  C          -3.17411328641878      0.53788619098300      0.96405610197820
  C          -1.85708106303423      0.44744106242108      1.33099544458211
  C           2.19409519812076      2.07396267765222     -1.36687351372302
  H           0.60778691108129      0.18668879266805      1.87925335905369
  H           1.46647495209825     -0.37860056897650     -1.02086040910726
  H          -0.55385475392315     -0.68908842545175     -1.62773163589745
  H          -2.93209261809393     -0.60774601130816     -2.23123663388939
  H          -4.58882999633696      0.18739762035386     -0.59889503235497
  H          -3.91791682128828      0.88250453419470      1.66586211416066
  H          -1.54001360300331      0.71643029117344      2.32985285137717
  H           2.04104254828719      1.51262453626800     -2.27558278327628
  H           2.50542841150749      2.99424272293514      0.91746943085851
  H           2.50619606004584      3.10711998497285     -1.43841647221225
  Br          0.01872539148163     -3.07334142701552      1.37964455724293
  Br          2.13697583372616     -4.52047057491713      0.35361485091333
  Br          4.02582874444468     -5.70341288566649     -0.55055203108462
