23
product
Br      0.86753      3.50471       1.95453
 C     -0.02596      1.49888       0.04309
 C      0.49704      1.58559       1.47104
 C      1.76149      0.80497       1.63541
 O      2.67679      1.11127       0.67505
 C     -0.24725      0.09585      -0.41580
 C      0.36197     -0.32399      -1.59971
 C      0.19405     -1.63132      -2.04661
 C     -0.58811     -2.52136      -1.31658
 C     -1.20174     -2.10320      -0.13518
 C     -1.03273     -0.80126       0.31560
 C      1.92059     -0.09648       2.60715
 H      0.60900      2.05159      -0.64889
 H     -0.24224      1.26348       2.20325
 H      0.96533      0.37625      -2.17141
 H      0.66919     -1.95057      -2.96959
 H     -0.72574     -3.53979      -1.66852
 H     -1.81763     -2.79453       0.43249
 H     -1.52921     -0.47616       1.22624
 H      1.12535     -0.27067       3.32149
 H      3.47273      0.57590       0.80310
 H      2.83839     -0.66980       2.69925
Br     -1.78940      2.52732      -0.06004
