23
Coordinates from ORCA-job orca_input E -105.831972453023
  Br          1.77142439174749     -1.40810265132560     -0.07533055858195
  C          -0.14858196184205      0.65603387152237      0.53304551999210
  C           1.04204794495736      0.39638182847896     -0.37657800239588
  C           2.13833570528001      1.38591815637808     -0.15609261956973
  O           2.49845103041252      1.47178441692983      1.14535319462971
  C          -0.64501579579188      2.06659682189367      0.42529563302215
  C          -1.05537115367875      2.60328806293196     -0.78919270985321
  C          -1.47932115038772      3.91593917528914     -0.86310886219478
  C          -1.49906969555432      4.70730165137392      0.27649023290065
  C          -1.09437902037546      4.17682702017728      1.48825701915559
  C          -0.66839287546678      2.85999304264617      1.56134458379917
  C           2.66567551173282      2.09635235640656     -1.14297164804536
  H           0.11138680549883      0.42954943866698      1.56079140858697
  H           0.75178581138626      0.40541256727698     -1.42077604194823
  H          -1.05438386592068      1.99107517034571     -1.68134917251435
  H          -1.79763168090982      4.32440864308109     -1.81262677672080
  H          -1.83247346563790      5.73465667165815      0.21808352335883
  H          -1.10942809726064      4.78696368899727      2.38119586440448
  H          -0.34878962303223      2.44718253101695      2.50903677215817
  H           2.31010879927909      1.96488547451723     -2.15340144799621
  H           3.20104703678154      2.11917823213312      1.25717676807396
  H           3.45221391182568      2.81612831467031     -0.95772932059744
  Br         -1.61572856304338     -0.59211448506617      0.12074664033615
