23
product
Br      1.73544     -1.41863      -0.13355
 C     -0.14248      0.66721       0.52712
 C      1.03838      0.40472      -0.39404
 C      2.15399      1.36934      -0.16041
 O      2.51944      1.42647       1.14109
 C     -0.61294      2.08876       0.45463
 C     -1.03804      2.59582      -0.76315
 C     -1.50338      3.89784      -0.85692
 C     -1.54633      4.70014       0.26931
 C     -1.11998      4.19726       1.49018
 C     -0.65548      2.89949       1.58253
 C      2.69264      2.08547      -1.13703
 H      0.11686      0.41196       1.54828
 H      0.74274      0.44038      -1.43613
 H     -1.00786      1.96762      -1.64366
 H     -1.83181      4.28330      -1.81264
 H     -1.90814      5.71706       0.19849
 H     -1.14870      4.82138       2.37304
 H     -0.31535      2.52061       2.53724
 H      2.33160      1.97775      -2.14836
 H      3.23494      2.05802       1.26145
 H      3.49396      2.78624      -0.94253
Br     -1.63559     -0.54257       0.09272
