25
Coordinates from ORCA-job orca_input E -132.581698419089
  Br      1.567740     -1.434320      0.059630
  C      -0.132460      0.540800      0.489800
  C       1.011600      0.402680     -0.421760
  C       2.111940      1.374840     -0.173890
  O       2.449230      1.451910      1.130280
  C      -1.465390      0.404040      0.176880
  C      -1.932420      0.128360     -1.135240
  C      -3.272840      0.020300     -1.366000
  C      -4.170690      0.183320     -0.309530
  C      -3.742240      0.452790      0.985510
  C      -2.401300      0.560530      1.233060
  C       2.647140      2.071940     -1.165060
  H       0.126430      0.764930      1.518830
  H       0.754700      0.371210     -1.470990
  H      -1.235010      0.000560     -1.949020
  H      -3.642690     -0.189160     -2.358720
  H      -5.231270      0.096630     -0.506060
  H      -4.461540      0.573060      1.781790
  H      -2.035960      0.766610      2.230000
  H       2.299110      1.930030     -2.176650
  H       3.161960      2.084970      1.263030
  H       3.437170      2.787900     -0.981870
  Br     -0.446990      3.873040     -0.819600
  Br     -1.173970      4.998880      1.302010
  Br     -2.015270      6.220720      3.428020
25
Coordinates from ORCA-job orca_input E -132.582091888503
  Br      1.565936     -1.428302      0.073394
  C      -0.135242      0.552276      0.487727
  C       1.011708      0.407348     -0.420590
  C       2.116370      1.374286     -0.174367
  O       2.445425      1.462135      1.131950
  C      -1.468151      0.406253      0.175571
  C      -1.933108      0.124600     -1.134580
  C      -3.273416      0.014193     -1.366229
  C      -4.172465      0.180702     -0.311461
  C      -3.745031      0.454090      0.982491
  C      -2.403761      0.564718      1.229848
  C       2.657370      2.062775     -1.166387
  H       0.122526      0.781073      1.516077
  H       0.757581      0.371194     -1.470245
  H      -1.234741     -0.003422     -1.947463
  H      -3.642149     -0.197791     -2.358815
  H      -5.232827      0.093221     -0.508587
  H      -4.464663      0.577050      1.778025
  H      -2.038661      0.775204      2.225966
  H       2.309501      1.919361     -2.177458
  H       3.155118      2.098364      1.263549
  H       3.444164      2.781844     -0.983578
  Br     -0.457649      3.873438     -0.831801
  Br     -1.205253      5.006303      1.290057
  Br     -1.971602      6.185657      3.461357
25
Coordinates from ORCA-job orca_input E -132.582430089541
  Br      1.556637     -1.421625      0.091315
  C      -0.136601      0.570386      0.484539
  C       1.012147      0.413884     -0.420990
  C       2.127462      1.368750     -0.179038
  O       2.445374      1.471462      1.129899
  C      -1.469823      0.411065      0.175447
  C      -1.933618      0.124204     -1.132508
  C      -3.273998      0.011924     -1.364108
  C      -4.173423      0.182241     -0.310375
  C      -3.745875      0.459127      0.982159
  C      -2.403888      0.571680      1.228728
  C       2.680049      2.041954     -1.173640
  H       0.120857      0.805180      1.511635
  H       0.759832      0.371433     -1.470870
  H      -1.234959     -0.002183     -1.945405
  H      -3.642365     -0.201659     -2.356488
  H      -5.233808      0.095582     -0.507580
  H      -4.465085      0.585504      1.777516
  H      -2.038933      0.786624      2.223940
  H       2.329809      1.898623     -2.183792
  H       3.151339      2.112092      1.259425
  H       3.464674      2.763548     -0.992205
  Br     -0.473790      3.877147     -0.841144
  Br     -1.246241      5.012006      1.289519
  Br     -1.968793      6.127619      3.488474
25
Coordinates from ORCA-job orca_input E -132.582733945348
  Br      1.538485     -1.416595      0.108230
  C      -0.135501      0.590555      0.480711
  C       1.012882      0.420909     -0.423526
  C       2.142009      1.360230     -0.187341
  O       2.449698      1.477330      1.123464
  C      -1.469215      0.418064      0.176297
  C      -1.933534      0.128174     -1.130003
  C      -3.274210      0.014766     -1.360236
  C      -4.172788      0.187681     -0.306263
  C      -3.743772      0.466844      0.984899
  C      -2.401019      0.580283      1.230049
  C       2.710701      2.013327     -1.185965
  H       0.122800      0.833056      1.505799
  H       0.761070      0.371775     -1.473262
  H      -1.235598      0.004443     -1.943910
  H      -3.643300     -0.199676     -2.352175
  H      -5.233410      0.102134     -0.502573
  H      -4.461790      0.595789      1.780927
  H      -2.035991      0.798054      2.224582
  H       2.357714      1.870067     -2.195205
  H       3.152684      2.121733      1.250575
  H       3.497033      2.733673     -1.006969
  Br     -0.491640      3.883547     -0.844261
  Br     -1.290190      5.011998      1.305936
  Br     -2.016137      6.068409      3.504669
25
Coordinates from ORCA-job orca_input E -132.583057776883
  Br      1.513326     -1.413567      0.121374
  C      -0.132321      0.609246      0.476703
  C       1.013810      0.427946     -0.427634
  C       2.156033      1.352122     -0.197181
  O       2.456727      1.480749      1.114191
  C      -1.466593      0.426460      0.177361
  C      -1.932853      0.135278     -1.127879
  C      -3.273983      0.021207     -1.355786
  C      -4.170811      0.194927     -0.300521
  C      -3.739410      0.475356      0.989492
  C      -2.396081      0.589349      1.232724
  C       2.743097      1.982428     -1.200634
  H       0.127482      0.861539      1.499012
  H       0.761756      0.372423     -1.477004
  H      -1.236380      0.013909     -1.943376
  H      -3.644563     -0.193808     -2.347061
  H      -5.231783      0.109751     -0.495102
  H      -4.455784      0.605158      1.786897
  H      -2.030670      0.807790      2.226927
  H       2.389308      1.837124     -2.209445
  H       3.158409      2.127193      1.239033
  H       3.536130      2.696349     -1.025019
  Br     -0.508391      3.890817     -0.841218
  Br     -1.333591      5.004672      1.336926
  Br     -2.095884      6.022155      3.511670
25
Coordinates from ORCA-job orca_input E -132.583365589629
  Br      1.486683     -1.411821      0.128926
  C      -0.128201      0.624140      0.472855
  C       1.014888      0.434792     -0.432296
  C       2.166609      1.347331     -0.206136
  O       2.464390      1.483926      1.104497
  C      -1.463131      0.435605      0.177786
  C      -1.932078      0.143543     -1.126579
  C      -3.273731      0.028818     -1.351771
  C      -4.168448      0.201801     -0.294738
  C      -3.734307      0.483059      0.994341
  C      -2.390684      0.598220      1.235192
  C       2.771706      1.954417     -1.214501
  H       0.133009      0.888145      1.491801
  H       0.762683      0.373843     -1.481290
  H      -1.237405      0.023032     -1.943737
  H      -3.646064     -0.186922     -2.342247
  H      -5.229754      0.115631     -0.487073
  H      -4.448961      0.611852      1.793496
  H      -2.024395      0.815612      2.229283
  H       2.420996      1.802962     -2.223651
  H       3.166899      2.130029      1.227496
  H       3.576363      2.656424     -1.043064
  Br     -0.522610      3.896794     -0.833850
  Br     -1.374757      4.990255      1.375734
  Br     -2.182720      5.995081      3.513976
25
Coordinates from ORCA-job orca_input E -132.583592755601
  Br      1.463960     -1.409228      0.132665
  C      -0.124597      0.638120      0.468867
  C       1.016280      0.442388     -0.436585
  C       2.175281      1.345512     -0.213641
  O       2.471308      1.489677      1.095950
  C      -1.460405      0.446398      0.177264
  C      -1.931892      0.151351     -1.125435
  C      -3.274085      0.035319     -1.347909
  C      -4.166827      0.207905     -0.289401
  C      -3.729979      0.491133      0.998445
  C      -2.386115      0.608973      1.236237
  C       2.797444      1.928571     -1.226640
  H       0.137448      0.915406      1.484068
  H       0.764600      0.376790     -1.485360
  H      -1.238974      0.029713     -1.943956
  H      -3.647994     -0.182185     -2.337422
  H      -5.228397      0.119544     -0.479253
  H      -4.442984      0.618554      1.799324
  H      -2.018281      0.825879      2.229890
  H       2.453618      1.766315     -2.236564
  H       3.176303      2.133463      1.217160
  H       3.616740      2.614791     -1.060109
  Br     -0.536462      3.900245     -0.826254
  Br     -1.418743      4.971309      1.412900
  Br     -2.260268      5.970628      3.520208
25
Coordinates from ORCA-job orca_input E -132.583796184982
  Br      1.436376     -1.402767      0.137499
  C      -0.120888      0.661836      0.462868
  C       1.018420      0.454842     -0.441658
  C       2.189104      1.343178     -0.223890
  O       2.479734      1.501590      1.084943
  C      -1.457914      0.464460      0.176135
  C      -1.932058      0.161326     -1.123042
  C      -3.274905      0.042206     -1.341789
  C      -4.165335      0.216583     -0.281945
  C      -3.725126      0.505484      1.003441
  C      -2.380794      0.628780      1.236426
  C       2.834759      1.890496     -1.242828
  H       0.141689      0.957633      1.472784
  H       0.767722      0.383011     -1.490245
  H      -1.241258      0.036745     -1.942998
  H      -3.650591     -0.179841     -2.329637
  H      -5.227187      0.124671     -0.468381
  H      -4.435959      0.632763      1.806288
  H      -2.010530      0.848277      2.228608
  H       2.501788      1.710526     -2.253450
  H       3.189248      2.141001      1.202824
  H       3.674107      2.554000     -1.083387
  Br     -0.558271      3.902488     -0.818525
  Br     -1.487467      4.942374      1.456015
  Br     -2.357686      5.914911      3.538390
25
Coordinates from ORCA-job orca_input E -132.583957059103
  Br      1.419550     -1.394591      0.139600
  C      -0.118371      0.684665      0.457068
  C       1.019771      0.466355     -0.445929
  C       2.201144      1.341230     -0.232537
  O       2.485606      1.514275      1.075810
  C      -1.456378      0.483220      0.174561
  C      -1.932399      0.169455     -1.120697
  C      -3.275679      0.046365     -1.335866
  C      -4.164244      0.224610     -0.275255
  C      -3.721414      0.521730      1.007262
  C      -2.376689      0.651191      1.235603
  C       2.865974      1.857010     -1.255556
  H       0.144801      0.994801      1.462556
  H       0.769269      0.390707     -1.494296
  H      -1.243316      0.040522     -1.941488
  H      -3.652764     -0.182291     -2.321684
  H      -5.226284      0.128716     -0.458493
  H      -4.430482      0.650678      1.811403
  H      -2.004081      0.876280      2.225659
  H       2.543557      1.659336     -2.266332
  H       3.201635      2.147073      1.189951
  H       3.722678      2.499501     -1.101804
  Br     -0.576858      3.900808     -0.812810
  Br     -1.548033      4.912555      1.486124
  Br     -2.440015      5.852370      3.561600
25
Coordinates from ORCA-job orca_input E -132.584176477400
  Br      1.408656     -1.381821      0.139829
  C      -0.116220      0.714013      0.449270
  C       1.020409      0.480464     -0.451389
  C       2.214786      1.339202     -0.242383
  O       2.490084      1.531610      1.065444
  C      -1.455187      0.509094      0.171897
  C      -1.933324      0.178551     -1.117712
  C      -3.276943      0.049093     -1.327786
  C      -4.163168      0.235016     -0.266537
  C      -3.717412      0.546298      1.011458
  C      -2.372282      0.684448      1.233609
  C       2.901114      1.818453     -1.268382
  H       0.148346      1.037480      1.450151
  H       0.769169      0.402916     -1.499466
  H      -1.246354      0.042393     -1.939136
  H      -3.655838     -0.190943     -2.310207
  H      -5.225401      0.133357     -0.445424
  H      -4.424428      0.679822      1.816649
  H      -1.996646      0.920687      2.219923
  H       2.591857      1.598544     -2.278693
  H       3.217947      2.151636      1.174430
  H       3.777407      2.435303     -1.119536
  Br     -0.597244      3.893961     -0.805068
  Br     -1.618033      4.868724      1.511987
  Br     -2.534314      5.758270      3.591521
25
Coordinates from ORCA-job orca_input E -132.584462521530
  Br      1.405898     -1.366302      0.137776
  C      -0.114781      0.745414      0.440306
  C       1.019942      0.494414     -0.457708
  C       2.226807      1.338060     -0.251674
  O       2.491334      1.551272      1.055395
  C      -1.454376      0.538987      0.168216
  C      -1.934945      0.186669     -1.114419
  C      -3.278693      0.048979     -1.318013
  C      -4.162180      0.247042     -0.256453
  C      -3.713516      0.578436      1.015307
  C      -2.368063      0.726246      1.230349
  C       2.933193      1.783492     -1.278375
  H       0.152490      1.076657      1.437764
  H       0.766918      0.418174     -1.505546
  H      -1.250349      0.040484     -1.936090
  H      -3.659864     -0.207158     -2.295479
  H      -5.224605      0.138502     -0.430050
  H      -4.418443      0.720425      1.820874
  H      -1.989148      0.979468      2.211192
  H       2.636960      1.541486     -2.287534
  H       3.237049      2.150625      1.158914
  H       3.827028      2.375120     -1.131260
  Br     -0.613106      3.880092     -0.793786
  Br     -1.682165      4.811326      1.525868
  Br     -2.626404      5.638658      3.618874
25
Coordinates from ORCA-job orca_input E -132.584803873545
  Br      1.403820     -1.350410      0.134629
  C      -0.113575      0.777624      0.430906
  C       1.019060      0.507267     -0.464579
  C       2.236944      1.338157     -0.260468
  O       2.490304      1.571927      1.045381
  C      -1.453464      0.570942      0.164066
  C      -1.937058      0.193021     -1.110305
  C      -3.280751      0.045895     -1.306102
  C      -4.161119      0.261106     -0.244869
  C      -3.709509      0.618407      1.018640
  C      -2.363724      0.775300      1.226005
  C       2.961250      1.755097     -1.286137
  H       0.157668      1.110336      1.426592
  H       0.763685      0.434678     -1.512249
  H      -1.255056      0.034276     -1.931793
  H      -3.664752     -0.230762     -2.276845
  H      -5.223774      0.145283     -0.412326
  H      -4.412307      0.773519      1.823650
  H      -1.981619      1.050921      2.199538
  H       2.675342      1.494789     -2.293700
  H       3.259469      2.141721      1.144336
  H       3.868264      2.325660     -1.136929
  Br     -0.620447      3.859274     -0.776415
  Br     -1.735073      4.738202      1.527718
  Br     -2.716597      5.494338      3.635708
25
Coordinates from ORCA-job orca_input E -132.585149831373
  Br      1.395920     -1.339121      0.131444
  C      -0.111894      0.803937      0.423289
  C       1.018801      0.516389     -0.470720
  C       2.243586      1.339610     -0.267674
  O       2.488991      1.588428      1.036744
  C      -1.452114      0.597424      0.160733
  C      -1.939067      0.195692     -1.105496
  C      -3.282668      0.040459     -1.293700
  C      -4.160151      0.275227     -0.233743
  C      -3.705837      0.659202      1.020720
  C      -2.359536      0.821546      1.221471
  C       2.980004      1.739494     -1.291690
  H       0.163553      1.132784      1.418927
  H       0.761395      0.448074     -1.518311
  H      -1.259319      0.024049     -1.926290
  H      -3.669592     -0.256987     -2.257107
  H      -5.223088      0.153769     -0.395470
  H      -4.406730      0.830381      1.824156
  H      -1.974898      1.120338      2.187082
  H       2.698166      1.470327     -2.298037
  H       3.282238      2.124643      1.134391
  H       3.892304      2.299801     -1.137174
  Br     -0.613792      3.835470     -0.753922
  Br     -1.764240      4.659724      1.519536
  Br     -2.795052      5.355909      3.635292
25
Coordinates from ORCA-job orca_input E -132.585457812642
  Br      1.376022     -1.333539      0.130539
  C      -0.109331      0.823037      0.418560
  C       1.019988      0.523067     -0.475420
  C       2.248658      1.341550     -0.274224
  O       2.490517      1.598072      1.029127
  C      -1.450432      0.614228      0.159485
  C      -1.940373      0.195079     -1.100052
  C      -3.284121      0.034942     -1.282393
  C      -4.159609      0.287482     -0.224577
  C      -3.702952      0.693187      1.021796
  C      -2.355852      0.856346      1.218049
  C       2.992449      1.732809     -1.297565
  H       0.168757      1.149681      1.414288
  H       0.761823      0.456290     -1.523012
  H      -1.262030      0.012641     -1.919769
  H      -3.673411     -0.279092     -2.239579
  H      -5.222847      0.163199     -0.382226
  H      -4.402191      0.879974      1.823234
  H      -1.969657      1.173711      2.176878
  H       2.708731      1.464329     -2.303526
  H       3.302802      2.104692      1.129117
  H       3.903316      2.293782     -1.137855
  Br     -0.595551      3.815485     -0.730167
  Br     -1.774935      4.588060      1.512065
  Br     -2.862792      5.247556      3.621676
25
Coordinates from ORCA-job orca_input E -132.585741713294
  Br      1.345185     -1.328469      0.133106
  C      -0.105969      0.841889      0.414588
  C       1.022146      0.531873     -0.479900
  C       2.255307      1.343383     -0.282240
  O       2.496245      1.603520      1.020473
  C      -1.448712      0.626328      0.159856
  C      -1.941260      0.192980     -1.093347
  C      -3.285540      0.030483     -1.270917
  C      -4.159661      0.299347     -0.215983
  C      -3.700457      0.723369      1.022755
  C      -2.352225      0.884951      1.215367
  C       3.006129      1.725286     -1.305904
  H       0.172848      1.174937      1.408359
  H       0.764386      0.462431     -1.527462
  H      -1.263859      0.000244     -1.911593
  H      -3.676675     -0.297323     -2.222762
  H      -5.223203      0.173932     -0.370589
  H      -4.397807      0.925131      1.822260
  H      -1.964846      1.217126      2.168388
  H       2.718894      1.461153     -2.312044
  H       3.323427      2.084433      1.125206
  H       3.913716      2.291035     -1.143818
  Br     -0.569261      3.799621     -0.706293
  Br     -1.784896      4.517249      1.512348
  Br     -2.936933      5.151661      3.604595
25
Coordinates from ORCA-job orca_input E -132.585987487484
  Br      1.318648     -1.322729      0.140094
  C      -0.103252      0.857225      0.411183
  C       1.023406      0.540734     -0.483369
  C       2.260156      1.344737     -0.288497
  O       2.503691      1.602701      1.014141
  C      -1.448123      0.631530      0.161256
  C      -1.942277      0.187878     -1.086696
  C      -3.287345      0.026320     -1.261590
  C      -4.161048      0.308742     -0.210010
  C      -3.699628      0.745554      1.022768
  C      -2.350073      0.903681      1.213204
  C       3.013290      1.721758     -1.312341
  H       0.174908      1.203592      1.400627
  H       0.766623      0.465675     -1.530751
  H      -1.265094     -0.014337     -1.902878
  H      -3.679388     -0.311035     -2.209776
  H      -5.224858      0.184184     -0.363227
  H      -4.395198      0.960107      1.820547
  H      -1.961858      1.245593      2.162194
  H       2.721046      1.465617     -2.319140
  H       3.340161      2.065473      1.125416
  H       3.915059      2.296881     -1.150961
  Br     -0.532688      3.788636     -0.687615
  Br     -1.786404      4.460739      1.512880
  Br     -2.992775      5.077313      3.586993
25
Coordinates from ORCA-job orca_input E -132.586282947297
  Br      1.296071     -1.313231      0.154982
  C      -0.102385      0.875157      0.407386
  C       1.023070      0.552223     -0.485625
  C       2.265484      1.345272     -0.293998
  O       2.513570      1.597994      1.008851
  C      -1.449341      0.633953      0.163703
  C      -1.943655      0.181554     -1.079618
  C      -3.289635      0.023206     -1.253988
  C      -4.163968      0.316167     -0.206156
  C      -3.700926      0.760686      1.022508
  C      -2.350057      0.915635      1.211796
  C       3.019189      1.716434     -1.319064
  H       0.173587      1.244540      1.389169
  H       0.767933      0.467101     -1.532563
  H      -1.266092     -0.029709     -1.893194
  H      -3.681319     -0.320256     -2.200203
  H      -5.227932      0.193614     -0.359532
  H      -4.394895      0.984788      1.819113
  H      -1.961581      1.262375      2.158629
  H       2.722087      1.468538     -2.326590
  H       3.354344      2.050638      1.126165
  H       3.916330      2.300552     -1.163759
  Br     -0.486290      3.783496     -0.673388
  Br     -1.788970      4.418052      1.517920
  Br     -3.037636      5.007793      3.571906
25
Coordinates from ORCA-job orca_input E -132.586699805845
  Br      1.281624     -1.296603      0.178809
  C      -0.104250      0.901755      0.401054
  C       1.019878      0.567775     -0.487145
  C       2.270726      1.345521     -0.298428
  O       2.525911      1.590758      1.004180
  C      -1.452813      0.639342      0.166186
  C      -1.946420      0.174935     -1.071517
  C      -3.293207      0.020183     -1.246583
  C      -4.168731      0.322890     -0.202884
  C      -3.704405      0.773554      1.022410
  C      -2.352303      0.928099      1.210382
  C       3.022907      1.709105     -1.325679
  H       0.168847      1.303016      1.370856
  H       0.766698      0.468520     -1.533171
  H      -1.268575     -0.047373     -1.881902
  H      -3.683441     -0.329327     -2.191266
  H      -5.232745      0.202201     -0.356927
  H      -4.396806      1.004809      1.818384
  H      -1.963727      1.277793      2.155968
  H       2.721639      1.467647     -2.333684
  H       3.369591      2.036222      1.125383
  H       3.919273      2.297642     -1.182165
  Br     -0.419922      3.779633     -0.658298
  Br     -1.791514      4.379417      1.525395
  Br     -3.081255      4.919057      3.555093
25
Coordinates from ORCA-job orca_input E -132.587182227605
  Br      1.272240     -1.273960      0.205235
  C      -0.109181      0.940775      0.391711
  C       1.014421      0.586465     -0.487686
  C       2.277538      1.345002     -0.302261
  O       2.539062      1.586981      0.999146
  C      -1.457588      0.655241      0.167174
  C      -1.950085      0.174496     -1.063885
  C      -3.297058      0.018708     -1.239351
  C      -4.173650      0.327405     -0.198561
  C      -3.708811      0.783841      1.024063
  C      -2.356254      0.945493      1.209283
  C       3.030216      1.694420     -1.333248
  H       0.161242      1.373530      1.348464
  H       0.763155      0.472332     -1.532614
  H      -1.272803     -0.058022     -1.871955
  H      -3.685107     -0.338238     -2.182196
  H      -5.237501      0.205108     -0.352180
  H      -4.400156      1.016399      1.820614
  H      -1.968005      1.297653      2.154069
  H       2.727512      1.451479     -2.340647
  H       3.385669      2.027429      1.117187
  H       3.935353      2.273271     -1.204568
  Br     -0.348217      3.776345     -0.640040
  Br     -1.803874      4.346999      1.538912
  Br     -3.131138      4.807416      3.537781
25
Coordinates from ORCA-job orca_input E -132.587782703504
  Br      1.267779     -1.253164      0.226090
  C      -0.116121      0.985515      0.380265
  C       1.007460      0.601748     -0.486233
  C       2.281644      1.342877     -0.302584
  O       2.552039      1.582050      0.996457
  C      -1.463332      0.678418      0.165735
  C      -1.954253      0.180899     -1.058964
  C      -3.300526      0.016888     -1.234507
  C      -4.178409      0.324326     -0.194537
  C      -3.714602      0.784810      1.026912
  C      -2.362827      0.961448      1.208572
  C       3.030346      1.683130     -1.337658
  H       0.153590      1.437056      1.327070
  H       0.758023      0.475910     -1.530228
  H      -1.277712     -0.057369     -1.866161
  H      -3.685421     -0.347945     -2.175614
  H      -5.241725      0.195520     -0.346599
  H      -4.405909      1.010487      1.825525
  H      -1.975962      1.314589      2.153517
  H       2.723310      1.436477     -2.342914
  H       3.400547      2.021586      1.104207
  H       3.949059      2.243220     -1.222144
  Br     -0.263891      3.771145     -0.618238
  Br     -1.804713      4.335167      1.552767
  Br     -3.171413      4.711781      3.513714
25
Coordinates from ORCA-job orca_input E -132.588641768481
  Br      1.247805     -1.229503      0.237067
  C      -0.125119      1.053520      0.363438
  C       0.999060      0.620906     -0.484808
  C       2.290786      1.337578     -0.305258
  O       2.566078      1.584546      0.991015
  C      -1.469224      0.723767      0.160126
  C      -1.958604      0.204587     -1.056243
  C      -3.302665      0.016760     -1.228099
  C      -4.180933      0.312943     -0.185461
  C      -3.718805      0.781722      1.033837
  C      -2.369948      0.988717      1.207194
  C       3.044356      1.655582     -1.345918
  H       0.145253      1.511369      1.306717
  H       0.752355      0.488167     -1.528791
  H      -1.283950     -0.032122     -1.865820
  H      -3.683551     -0.360573     -2.165842
  H      -5.242847      0.166407     -0.331506
  H      -4.409989      0.990448      1.837213
  H      -1.985429      1.345849      2.151723
  H       2.735138      1.394978     -2.347004
  H       3.418120      2.022976      1.078432
  H       3.988632      2.174181     -1.240008
  Br     -0.182851      3.761628     -0.585094
  Br     -1.829207      4.324167      1.579566
  Br     -3.237482      4.597972      3.487978
25
Coordinates from ORCA-job orca_input E -132.590053501716
  Br      1.216299     -1.217959      0.224370
  C      -0.134784      1.131547      0.341674
  C       0.988395      0.630438     -0.480515
  C       2.293614      1.325913     -0.302551
  O       2.578154      1.579306      0.990146
  C      -1.477006      0.781990      0.147875
  C      -1.962591      0.246238     -1.061679
  C      -3.301344      0.012647     -1.227492
  C      -4.180293      0.276234     -0.176970
  C      -3.723079      0.752514      1.042211
  C      -2.381386      1.007446      1.204073
  C       3.045240      1.635980     -1.346436
  H       0.140306      1.555239      1.295813
  H       0.746395      0.503491     -1.526568
  H      -1.288732      0.028595     -1.877748
  H      -3.675158     -0.377589     -2.162679
  H      -5.238442      0.096182     -0.313465
  H      -4.414244      0.926801      1.853876
  H      -2.002107      1.367019      2.149758
  H       2.724357      1.364531     -2.340558
  H       3.429413      2.026117      1.048111
  H       4.015678      2.103158     -1.238721
  Br     -0.087300      3.742162     -0.547768
  Br     -1.825661      4.363514      1.607370
  Br     -3.278744      4.575058      3.462323
25
Coordinates from ORCA-job orca_input E -132.592350361433
  Br      1.148992     -1.201028      0.204333
  C      -0.141601      1.229076      0.315929
  C       0.976600      0.646826     -0.480354
  C       2.303271      1.309619     -0.307456
  O       2.590071      1.576109      0.983947
  C      -1.484218      0.852795      0.132982
  C      -1.967319      0.302042     -1.067881
  C      -3.297705      0.009497     -1.223347
  C      -4.174179      0.232406     -0.162358
  C      -3.720184      0.723326      1.053369
  C      -2.388284      1.033720      1.198044
  C       3.069410      1.596436     -1.352894
  H       0.136868      1.603856      1.289678
  H       0.741855      0.531340     -1.529986
  H      -1.295635      0.113410     -1.893493
  H      -3.663882     -0.396149     -2.154934
  H      -5.225909      0.009090     -0.284575
  H      -4.407403      0.861557      1.875369
  H      -2.014200      1.401360      2.143165
  H       2.738730      1.315029     -2.340788
  H       3.441955      2.026587      1.016173
  H       4.064352      2.005968     -1.233548
  Br     -0.022763      3.715156     -0.501926
  Br     -1.854867      4.385706      1.645755
  Br     -3.346975      4.552836      3.439246
25
Coordinates from ORCA-job orca_input E -132.595748947461
  Br      1.089487     -1.178590      0.195065
  C      -0.142510      1.325004      0.290676
  C       0.963273      0.668041     -0.480708
  C       2.308789      1.295439     -0.310948
  O       2.600883      1.568073      0.978035
  C      -1.488788      0.915323      0.120581
  C      -1.973017      0.349788     -1.070309
  C      -3.294812      0.008738     -1.217734
  C      -4.167688      0.197372     -0.148190
  C      -3.714516      0.700679      1.063426
  C      -2.391651      1.056810      1.190685
  C       3.085560      1.561311     -1.356135
  H       0.136726      1.658533      1.278008
  H       0.734908      0.559028     -1.533063
  H      -1.304942      0.183265     -1.904134
  H      -3.653312     -0.409558     -2.146713
  H      -5.212600     -0.061944     -0.257768
  H      -4.395083      0.810843      1.895288
  H      -2.021083      1.431897      2.134667
  H       2.747811      1.272638     -2.339642
  H       3.453526      2.018899      0.990807
  H       4.099223      1.921520     -1.231290
  Br      0.042855      3.677956     -0.459392
  Br     -1.878358      4.396487      1.674194
  Br     -3.417703      4.509018      3.409046
25
Coordinates from ORCA-job orca_input E -132.600955784625
  Br      1.021623     -1.148747      0.194028
  C      -0.140346      1.425388      0.265402
  C       0.947458      0.692311     -0.480692
  C       2.312756      1.279852     -0.315008
  O       2.608813      1.560275      0.971846
  C      -1.490721      0.976380      0.109797
  C      -1.975413      0.398373     -1.071343
  C      -3.287802      0.011890     -1.212094
  C      -4.156625      0.166216     -0.134607
  C      -3.704069      0.679688      1.073455
  C      -2.390882      1.077705      1.183430
  C       3.100834      1.522390     -1.360045
  H       0.136667      1.706248      1.268281
  H       0.725977      0.586769     -1.535725
  H      -1.312034      0.252521     -1.913576
  H      -3.637890     -0.416673     -2.139607
  H      -5.193795     -0.126892     -0.232811
  H      -4.376573      0.764021      1.914976
  H      -2.024549      1.459730      2.126958
  H       2.756494      1.225451     -2.338997
  H       3.461497      2.011968      0.966682
  H       4.130022      1.835555     -1.231320
  Br      0.090658      3.633841     -0.422687
  Br     -1.908361      4.409625      1.697874
  Br     -3.486760      4.452687      3.380234
25
Coordinates from ORCA-job orca_input E -132.606696304908
  Br      0.955821     -1.118084      0.196282
  C      -0.135177      1.520354      0.242226
  C       0.931240      0.715720     -0.479993
  C       2.313882      1.264876     -0.318759
  O       2.614152      1.554401      0.965696
  C      -1.489993      1.033271      0.100996
  C      -1.974738      0.446694     -1.071581
  C      -3.277610      0.019739     -1.206495
  C      -4.141447      0.140740     -0.121320
  C      -3.688929      0.662064      1.084020
  C      -2.385453      1.096715      1.177554
  C       3.111631      1.484941     -1.363650
  H       0.136472      1.734568      1.262070
  H       0.716484      0.613301     -1.537471
  H      -1.317606      0.320380     -1.922513
  H      -3.619954     -0.415888     -2.133649
  H      -5.170560     -0.182697     -0.209545
  H      -4.352593      0.723631      1.934588
  H      -2.023399      1.485857      2.120757
  H       2.761464      1.177750     -2.337689
  H       3.466759      2.006177      0.944216
  H       4.153257      1.755080     -1.232227
  Br      0.121268      3.581865     -0.391528
  Br     -1.940047      4.421781      1.712319
  Br     -3.557943      4.393335      3.350147
25
Coordinates from ORCA-job orca_input E -132.613988300807
  Br      0.877299     -1.058598      0.284515
  C      -0.123557      1.577280      0.218767
  C       0.936351      0.751937     -0.487124
  C       2.323254      1.258482     -0.335056
  O       2.641464      1.544478      0.951632
  C      -1.498313      1.026018      0.094238
  C      -1.966764      0.462611     -1.083271
  C      -3.276658      0.037731     -1.200298
  C      -4.135454      0.135504     -0.117924
  C      -3.671512      0.647273      1.080082
  C      -2.364023      1.084705      1.177902
  C       3.119795      1.452936     -1.373390
  H       0.138022      1.694241      1.263595
  H       0.724040      0.619935     -1.541977
  H      -1.320557      0.340609     -1.944220
  H      -3.622493     -0.386674     -2.131963
  H      -5.162243     -0.195204     -0.204780
  H      -4.327613      0.710020      1.936537
  H      -2.007247      1.472238      2.121762
  H       2.766079      1.158156     -2.348753
  H       3.494775      1.991212      0.959369
  H       4.144252      1.762304     -1.238417
  Br      0.099883      3.519909     -0.400624
  Br     -1.955450      4.423866      1.712276
  Br     -3.626351      4.405601      3.371570
25
Coordinates from ORCA-job orca_input E -132.616143064421
  Br      0.832294     -1.031604      0.314427
  C      -0.124604      1.620597      0.212572
  C       0.937067      0.772560     -0.484921
  C       2.335588      1.252919     -0.346926
  O       2.661234      1.549477      0.938835
  C      -1.506104      1.053042      0.092400
  C      -1.964257      0.510717     -1.091985
  C      -3.270212      0.059876     -1.201858
  C      -4.125365      0.114942     -0.114115
  C      -3.659438      0.613348      1.088810
  C      -2.358223      1.073621      1.183457
  C       3.147698      1.401857     -1.389596
  H       0.127358      1.689719      1.266724
  H       0.726139      0.624191     -1.537747
  H      -1.324776      0.420154     -1.959939
  H      -3.613409     -0.350248     -2.141782
  H      -5.144824     -0.236332     -0.201163
  H      -4.306792      0.648590      1.954275
  H      -2.005645      1.450188      2.133967
  H       2.800051      1.097456     -2.364915
  H       3.505346      2.011176      0.947885
  H       4.179320      1.701010     -1.261697
  Br      0.065219      3.483707     -0.388166
  Br     -2.042482      4.435685      1.761446
  Br     -3.664202      4.469922      3.354460
25
Coordinates from ORCA-job orca_input E -132.618669293952
  Br      0.923045     -1.054054      0.349961
  C      -0.124468      1.539959      0.223218
  C       0.958660      0.753383     -0.480166
  C       2.332700      1.271963     -0.347295
  O       2.665737      1.568712      0.934881
  C      -1.514314      1.025584      0.082004
  C      -1.972981      0.508373     -1.114682
  C      -3.283463      0.069855     -1.214474
  C      -4.134107      0.125032     -0.123167
  C      -3.658445      0.613457      1.081941
  C      -2.350005      1.057197      1.184965
  C       3.137783      1.413508     -1.389811
  H       0.131792      1.618828      1.278294
  H       0.738980      0.592822     -1.525596
  H      -1.338091      0.425467     -1.983921
  H      -3.636653     -0.325950     -2.157955
  H      -5.155648     -0.217917     -0.211181
  H      -4.303236      0.652349      1.949919
  H      -1.987680      1.424721      2.134054
  H       2.808044      1.109301     -2.370875
  H       3.515872      2.015162      0.972162
  H       4.155147      1.764235     -1.268226
  Br      0.009503      3.455799     -0.407510
  Br     -2.050257      4.400908      1.775179
  Br     -3.660935      4.627876      3.392731
25
Coordinates from ORCA-job orca_input E -132.618873222294
  Br      0.929490     -1.083126      0.301835
  C      -0.126816      1.545053      0.221568
  C       0.949984      0.732704     -0.471472
  C       2.328519      1.264341     -0.340124
  O       2.648657      1.574690      0.937739
  C      -1.509340      1.060154      0.070803
  C      -1.976426      0.546278     -1.126244
  C      -3.271980      0.069105     -1.227615
  C      -4.112618      0.095434     -0.121877
  C      -3.642477      0.587976      1.089378
  C      -2.345450      1.057565      1.180449
  C       3.135792      1.405458     -1.382929
  H       0.127095      1.579766      1.276426
  H       0.727819      0.591823     -1.520817
  H      -1.342134      0.503101     -1.999207
  H      -3.623913     -0.327068     -2.170854
  H      -5.125816     -0.273919     -0.202192
  H      -4.282058      0.600419      1.961697
  H      -1.978610      1.428853      2.127643
  H       2.804497      1.091881     -2.361047
  H       3.504402      2.015280      0.963949
  H       4.158756      1.738568     -1.252915
  Br     -0.023834      3.422953     -0.405390
  Br     -2.060033      4.447294      1.779809
  Br     -3.686524      4.761986      3.435837
25
Coordinates from ORCA-job orca_input E -132.620372098087
  Br      0.956385     -1.087149      0.345574
  C      -0.110224      1.525059      0.233437
  C       0.968514      0.726099     -0.464569
  C       2.352926      1.268470     -0.341019
  O       2.677006      1.570668      0.931350
  C      -1.517004      1.031488      0.072706
  C      -1.999891      0.538861     -1.142831
  C      -3.297904      0.071897     -1.244223
  C      -4.130946      0.085016     -0.132978
  C      -3.655373      0.551503      1.085280
  C      -2.354820      1.011185      1.187458
  C       3.148604      1.398996     -1.391652
  H       0.144325      1.651663      1.279280
  H       0.733031      0.550295     -1.508984
  H      -1.361817      0.527166     -2.015702
  H      -3.659417     -0.301247     -2.192635
  H      -5.146501     -0.277335     -0.217197
  H      -4.291848      0.548561      1.959523
  H      -1.979396      1.363782      2.139414
  H       2.810795      1.117125     -2.376935
  H       3.534939      2.003662      0.971501
  H       4.153650      1.779528     -1.282184
  Br      0.016915      3.408120     -0.390540
  Br     -2.084771      4.443417      1.822875
  Br     -3.700197      4.929738      3.437502
25
Coordinates from ORCA-job orca_input E -132.621111882416
  Br      0.921908     -1.083413      0.351650
  C      -0.116392      1.517145      0.236259
  C       0.969183      0.723113     -0.462972
  C       2.353464      1.265488     -0.341582
  O       2.671471      1.577329      0.934545
  C      -1.523063      1.014435      0.074257
  C      -1.994296      0.547173     -1.145999
  C      -3.291280      0.075214     -1.245918
  C      -4.123072      0.067756     -0.137569
  C      -3.651760      0.525717      1.079988
  C      -2.353577      0.990802      1.187252
  C       3.151253      1.394982     -1.390407
  H       0.133388      1.619009      1.285606
  H       0.737778      0.545299     -1.506625
  H      -1.356771      0.550786     -2.019942
  H      -3.653600     -0.288811     -2.197407
  H      -5.136568     -0.300048     -0.225358
  H      -4.290565      0.515079      1.952313
  H      -1.983412      1.339569      2.140988
  H       2.805855      1.119173     -2.374829
  H       3.523990      2.019942      0.975957
  H       4.150501      1.791001     -1.277654
  Br     -0.014495      3.417126     -0.409655
  Br     -2.088943      4.485584      1.839882
  Br     -3.634016      5.007119      3.441668
25
Coordinates from ORCA-job orca_input E -132.621568620894
  Br      0.946791     -1.091205      0.349789
  C      -0.115829      1.513566      0.236026
  C       0.962455      0.713106     -0.457856
  C       2.337753      1.263903     -0.334209
  O       2.660377      1.572533      0.940083
  C      -1.520561      1.015625      0.071695
  C      -1.993777      0.562191     -1.150193
  C      -3.285884      0.077655     -1.254377
  C      -4.115444      0.048894     -0.143298
  C      -3.646406      0.499796      1.078694
  C      -2.351931      0.973816      1.183778
  C       3.126640      1.404241     -1.383775
  H       0.131349      1.603146      1.287110
  H       0.732447      0.540685     -1.500801
  H      -1.358104      0.582923     -2.024277
  H      -3.647222     -0.279276     -2.209228
  H      -5.125376     -0.328147     -0.232486
  H      -4.283665      0.475344      1.952105
  H      -1.981151      1.316802      2.139913
  H       2.775131      1.132108     -2.366685
  H       3.514886      2.012521      0.978833
  H       4.125806      1.802729     -1.273238
  Br     -0.003462      3.393681     -0.409141
  Br     -2.068654      4.518405      1.841958
  Br     -3.609188      5.111529      3.444030
25
Coordinates from ORCA-job orca_input E -132.621778170112
  Br      0.936070     -1.092173      0.347239
  C      -0.119819      1.517512      0.239900
  C       0.959937      0.710910     -0.457010
  C       2.342660      1.261685     -0.336105
  O       2.656743      1.583951      0.938217
  C      -1.518842      1.015054      0.072087
  C      -1.997276      0.573893     -1.155251
  C      -3.285590      0.082662     -1.260522
  C      -4.108694      0.035767     -0.146495
  C      -3.638491      0.478765      1.077760
  C      -2.346545      0.961332      1.184690
  C       3.145851      1.387185     -1.387761
  H       0.127127      1.620866      1.291817
  H       0.731821      0.540444     -1.501824
  H      -1.366947      0.611441     -2.032755
  H      -3.650387     -0.265534     -2.217398
  H      -5.116185     -0.348008     -0.234839
  H      -4.274810      0.442500      1.951365
  H      -1.975285      1.301145      2.142914
  H       2.799574      1.107688     -2.370941
  H       3.517422      2.012968      0.973137
  H       4.150727      1.777508     -1.282805
  Br     -0.032866      3.389046     -0.413162
  Br     -2.099144      4.535622      1.862069
  Br     -3.630070      5.194340      3.480121
25
Coordinates from ORCA-job orca_input E -132.622082387810
  Br      0.938077     -1.096951      0.351546
  C      -0.120292      1.509191      0.242145
  C       0.958419      0.705198     -0.453744
  C       2.336728      1.261315     -0.331056
  O       2.650426      1.582617      0.943271
  C      -1.518378      1.002484      0.072170
  C      -1.999289      0.576966     -1.160278
  C      -3.286251      0.082905     -1.267701
  C      -4.106943      0.020165     -0.152524
  C      -3.636081      0.452179      1.075012
  C      -2.345105      0.937866      1.184578
  C       3.135188      1.396978     -1.380961
  H       0.123956      1.615717      1.293234
  H       0.731086      0.535685     -1.498722
  H      -1.371217      0.629132     -2.038825
  H      -3.653237     -0.254316     -2.227677
  H      -5.113237     -0.366161     -0.243001
  H      -4.271741      0.406490      1.948665
  H      -1.973610      1.271007      2.144856
  H       2.784896      1.124793     -2.364693
  H       3.512167      2.008802      0.979870
  H       4.134456      1.800156     -1.277584
  Br     -0.032651      3.379534     -0.420808
  Br     -2.087899      4.566309      1.869025
  Br     -3.582490      5.288512      3.477652
25
Coordinates from ORCA-job orca_input E -132.622293188178
  Br      0.939542     -1.100470      0.354875
  C      -0.123963      1.501464      0.243736
  C       0.956227      0.701169     -0.452385
  C       2.330853      1.261156     -0.326045
  O       2.640228      1.586194      0.949602
  C      -1.517345      0.985500      0.072304
  C      -2.004136      0.583237     -1.165732
  C      -3.289672      0.087255     -1.274915
  C      -4.105296      0.001272     -0.157455
  C      -3.630011      0.416414      1.073156
  C      -2.339961      0.907058      1.185066
  C       3.131302      1.405771     -1.371955
  H       0.117050      1.614435      1.294582
  H       0.731785      0.536232     -1.498411
  H      -1.383442      0.653947     -2.048417
  H      -3.661154     -0.232700     -2.239090
  H      -5.110557     -0.387247     -0.249336
  H      -4.262990      0.357885      1.948064
  H      -1.967081      1.231559      2.147554
  H       2.783168      1.134857     -2.356949
  H       3.507752      1.999972      0.988810
  H       4.126260      1.819363     -1.269778
  Br     -0.044913      3.366575     -0.434896
  Br     -2.086080      4.600990      1.876046
  Br     -3.530587      5.404683      3.476018
25
Coordinates from ORCA-job orca_input E -132.622388404396
  Br      0.936957     -1.106779      0.347680
  C      -0.127562      1.496267      0.243266
  C       0.956260      0.698796     -0.452204
  C       2.329959      1.261008     -0.321020
  O       2.634542      1.586022      0.955973
  C      -1.517813      0.971667      0.071833
  C      -2.010568      0.586125     -1.171096
  C      -3.295544      0.089025     -1.281273
  C      -4.106344     -0.016196     -0.160736
  C      -3.626761      0.382385      1.073805
  C      -2.338221      0.876849      1.187259
  C       3.132292      1.415300     -1.363086
  H       0.111377      1.613586      1.293617
  H       0.733579      0.538684     -1.500088
  H      -1.395677      0.674341     -2.056525
  H      -3.671168     -0.215683     -2.248701
  H      -5.110909     -0.406112     -0.253754
  H      -4.255719      0.309876      1.950596
  H      -1.963141      1.191268      2.152646
  H       2.788250      1.144219     -2.349607
  H       3.504873      1.993332      0.998421
  H       4.123279      1.836196     -1.258515
  Br     -0.056008      3.361549     -0.449989
  Br     -2.081660      4.641223      1.877823
  Br     -3.487291      5.513621      3.478123
25
Coordinates from ORCA-job orca_input E -132.622454091999
  Br      0.940943     -1.108081      0.341628
  C      -0.132022      1.494077      0.240292
  C       0.955914      0.700034     -0.454783
  C       2.327485      1.262799     -0.317618
  O       2.626562      1.590101      0.961302
  C      -1.518180      0.962595      0.070924
  C      -2.017930      0.591239     -1.172534
  C      -3.302597      0.094653     -1.282912
  C      -4.107844     -0.025341     -0.159944
  C      -3.621320      0.360163      1.075676
  C      -2.332985      0.856685      1.188215
  C       3.135753      1.422019     -1.355390
  H       0.106358      1.616024      1.290615
  H       0.735657      0.545358     -1.503677
  H      -1.410896      0.690403     -2.062272
  H      -3.681988     -0.197547     -2.252766
  H      -5.112584     -0.414887     -0.252198
  H      -4.244775      0.277815      1.955552
  H      -1.954299      1.162765      2.154485
  H       2.801599      1.143604     -2.343364
  H       3.504247      1.981138      1.009022
  H       4.125619      1.845229     -1.246749
  Br     -0.069104      3.351205     -0.463129
  Br     -2.085446      4.658417      1.872172
  Br     -3.461189      5.576102      3.471905
25
Coordinates from ORCA-job orca_input E -132.622502689741
  Br      0.942192     -1.109332      0.331279
  C      -0.135021      1.494353      0.235911
  C       0.956857      0.702630     -0.457863
  C       2.327858      1.265115     -0.315168
  O       2.622288      1.591183      0.965158
  C      -1.520133      0.959272      0.069904
  C      -2.023734      0.592142     -1.172605
  C      -3.308981      0.096799     -1.282708
  C      -4.110708     -0.028601     -0.157675
  C      -3.619480      0.349522      1.078739
  C      -2.331117      0.845607      1.189530
  C       3.139829      1.427422     -1.349912
  H       0.104507      1.619254      1.285639
  H       0.737782      0.550606     -1.507496
  H      -1.420044      0.696271     -2.064183
  H      -3.690193     -0.189900     -2.253447
  H      -5.116086     -0.416780     -0.248846
  H      -4.238403      0.261273      1.961236
  H      -1.948868      1.144920      2.156514
  H       2.813878      1.142883     -2.338882
  H       3.503600      1.973287      1.018090
  H       4.129021      1.850578     -1.234796
  Br     -0.075749      3.348954     -0.473388
  Br     -2.085553      4.669008      1.861247
  Br     -3.446761      5.600106      3.468171
25
Coordinates from ORCA-job orca_input E -132.622551018067
  Br      0.942857     -1.109081      0.318465
  C      -0.138229      1.495759      0.228874
  C       0.958099      0.706929     -0.462741
  C       2.328470      1.269770     -0.312636
  O       2.616105      1.593598      0.969362
  C      -1.523377      0.958174      0.068585
  C      -2.030448      0.591469     -1.171502
  C      -3.317061      0.098962     -1.280796
  C      -4.114802     -0.027303     -0.153186
  C      -3.617944      0.344760      1.083409
  C      -2.328451      0.837748      1.191385
  C       3.145223      1.433532     -1.343813
  H       0.104490      1.625458      1.277410
  H       0.740722      0.555925     -1.512907
  H      -1.428748      0.697531     -2.064385
  H      -3.700068     -0.184964     -2.251571
  H      -5.121626     -0.412362     -0.242091
  H      -4.232006      0.252724      1.968878
  H      -1.940861      1.129421      2.158566
  H       2.829377      1.141647     -2.333800
  H       3.502137      1.963278      1.030997
  H       4.133538      1.855906     -1.218325
  Br     -0.082537      3.347842     -0.486184
  Br     -2.084516      4.671839      1.840047
  Br     -3.433365      5.598008      3.462409
25
Coordinates from ORCA-job orca_input E -132.622571280208
  Br      0.942456     -1.108065      0.314805
  C      -0.139483      1.496594      0.225349
  C       0.957965      0.708404     -0.464910
  C       2.327982      1.272702     -0.311435
  O       2.611725      1.595781      0.971205
  C      -1.525047      0.958545      0.068234
  C      -2.032950      0.591579     -1.171047
  C      -3.320227      0.100381     -1.279812
  C      -4.116176     -0.025514     -0.150872
  C      -3.617191      0.343994      1.085815
  C      -2.326779      0.834954      1.192659
  C       3.147017      1.435928     -1.341133
  H       0.105154      1.629248      1.273193
  H       0.742331      0.556520     -1.515270
  H      -1.431025      0.698144     -2.063783
  H      -3.704436     -0.183161     -2.250174
  H      -5.123767     -0.408943     -0.238540
  H      -4.230076      0.250912      1.971970
  H      -1.936495      1.123190      2.159871
  H       2.834154      1.142571     -2.331521
  H       3.499908      1.959241      1.037764
  H       4.134963      1.857662     -1.210622
  Br     -0.085285      3.347710     -0.492710
  Br     -2.082140      4.670580      1.826687
  Br     -3.425599      5.587613      3.458729
25
Coordinates from ORCA-job orca_input E -132.622589740325
  Br      0.941524     -1.106003      0.315252
  C      -0.140545      1.497606      0.222315
  C       0.956958      0.709145     -0.466347
  C       2.326591      1.275772     -0.310228
  O       2.606448      1.598864      0.972810
  C      -1.526577      0.959257      0.068259
  C      -2.034935      0.593367     -1.171084
  C      -3.322538      0.102799     -1.279140
  C      -4.116681     -0.024068     -0.148896
  C      -3.616008      0.342122      1.088079
  C      -2.324677      0.831497      1.194297
  C       3.147939      1.437285     -1.338516
  H       0.105538      1.633466      1.269487
  H       0.744109      0.555346     -1.516976
  H      -1.432319      0.701357     -2.063175
  H      -3.708683     -0.179894     -2.248958
  H      -5.124836     -0.406338     -0.235487
  H      -4.228690      0.247361      1.974181
  H      -1.932006      1.116259      2.161625
  H       2.835839      1.145025     -2.329379
  H       3.496498      1.956478      1.044295
  H       4.135945      1.857719     -1.204378
  Br     -0.087952      3.347472     -0.499561
  Br     -2.078003      4.669007      1.812119
  Br     -3.415960      5.575670      3.453854
25
Coordinates from ORCA-job orca_input E -132.622602367003
  Br      0.940560     -1.103830      0.318700
  C      -0.141277      1.498793      0.221040
  C       0.955709      0.709373     -0.466363
  C       2.325209      1.277387     -0.309344
  O       2.603040      1.601276      0.973741
  C      -1.527444      0.960015      0.068528
  C      -2.036342      0.596810     -1.171603
  C      -3.323614      0.105531     -1.279083
  C      -4.116330     -0.024499     -0.148016
  C      -3.614626      0.338332      1.089409
  C      -2.323108      0.827872      1.195550
  C       3.148139      1.436841     -1.336663
  H       0.104847      1.636735      1.267907
  H       0.745133      0.554020     -1.517261
  H      -1.433556      0.707352     -2.063221
  H      -3.711641     -0.175391     -2.248677
  H      -5.124470     -0.406911     -0.234186
  H      -4.227305      0.240731      1.975197
  H      -1.929271      1.109941      2.163194
  H       2.835130      1.146974     -2.327942
  H       3.493967      1.955924      1.047731
  H       4.136897      1.855246     -1.201946
  Br     -0.089693      3.347427     -0.504287
  Br     -2.074190      4.669466      1.802678
  Br     -3.408785      5.571154      3.449366
25
Coordinates from ORCA-job orca_input E -132.622612872429
  Br      0.939043     -1.101120      0.323846
  C      -0.142083      1.500869      0.220589
  C       0.954305      0.709948     -0.465387
  C       2.323962      1.278187     -0.308376
  O       2.600811      1.603533      0.974548
  C      -1.528181      0.961415      0.068856
  C      -2.038238      0.602495     -1.172371
  C      -3.324623      0.109281     -1.279236
  C      -4.115543     -0.026372     -0.147400
  C      -3.612637      0.332367      1.090594
  C      -2.321586      0.823576      1.196707
  C       3.148353      1.434716     -1.334785
  H       0.103104      1.640633      1.267354
  H       0.745496      0.553251     -1.516514
  H      -1.436028      0.717023     -2.063834
  H      -3.714718     -0.168767     -2.248865
  H      -5.123195     -0.410063     -0.233397
  H      -4.224673      0.230104      1.976304
  H      -1.926963      1.102576      2.164883
  H       2.833905      1.147700     -2.326501
  H       3.492219      1.956529      1.049700
  H       4.138538      1.849966     -1.201127
  Br     -0.091023      3.347905     -0.508740
  Br     -2.070029      4.671205      1.794086
  Br     -3.403234      5.569614      3.443515
25
Coordinates from ORCA-job orca_input E -132.622624793979
  Br      0.936456     -1.097795      0.329716
  C      -0.143051      1.504374      0.220694
  C       0.952863      0.711419     -0.463506
  C       2.323082      1.278257     -0.307185
  O       2.599919      1.605653      0.975363
  C      -1.528934      0.964072      0.069150
  C      -2.040936      0.610485     -1.173096
  C      -3.325976      0.114203     -1.279296
  C      -4.114468     -0.029189     -0.146608
  C      -3.609935      0.324983      1.091949
  C      -2.320008      0.819299      1.197786
  C       3.148844      1.430667     -1.332820
  H       0.100525      1.646008      1.267514
  H       0.744775      0.553595     -1.514696
  H      -1.440191      0.730219     -2.064850
  H      -3.718096     -0.160132     -2.249202
  H      -5.121206     -0.415239     -0.232488
  H      -4.220213      0.216448      1.978132
  H      -1.924647      1.094698      2.166640
  H       2.833059      1.146053     -2.324899
  H       3.491559      1.958009      1.050346
  H       4.140971      1.841750     -1.201055
  Br     -0.091554      3.349438     -0.513234
  Br     -2.065386      4.672902      1.784629
  Br     -3.400473      5.566391      3.435466
25
Coordinates from ORCA-job orca_input E -132.622639459214
  Br      0.932111     -1.093609      0.336451
  C      -0.144360      1.509969      0.221322
  C       0.951210      0.714146     -0.460395
  C       2.322547      1.277661     -0.305426
  O       2.600388      1.607920      0.976420
  C      -1.529886      0.968663      0.069475
  C      -2.044900      0.622041     -1.173701
  C      -3.328084      0.121255     -1.279161
  C      -4.112912     -0.033046     -0.145334
  C      -3.606007      0.315367      1.093848
  C      -2.318015      0.814599      1.199069
  C       3.149578      1.424032     -1.330595
  H       0.097075      1.654114      1.268274
  H       0.742427      0.555134     -1.511338
  H      -1.446880      0.749180     -2.066301
  H      -3.722273     -0.147989     -2.249681
  H      -5.118186     -0.422851     -0.231077
  H      -4.212881      0.198215      1.981285
  H      -1.921550      1.085172      2.168799
  H       2.832756      1.140744     -2.322821
  H       3.492133      1.960418      1.049786
  H       4.144020      1.830107     -1.201109
  Br     -0.090992      3.352377     -0.518576
  Br     -2.059536      4.673914      1.772082
  Br     -3.400803      5.559036      3.423153
25
Coordinates from ORCA-job orca_input E -132.622653986163
  Br      0.926691     -1.089635      0.342548
  C      -0.145659      1.516479      0.222377
  C       0.949613      0.717410     -0.456681
  C       2.322427      1.276551     -0.303447
  O       2.602088      1.609820      0.977432
  C      -1.530808      0.974460      0.069917
  C      -2.048996      0.634646     -1.173818
  C      -3.330376      0.129149     -1.278723
  C      -4.111032     -0.036514     -0.143728
  C      -3.601630      0.306285      1.095989
  C      -2.315851      0.810941      1.200456
  C       3.150026      1.416272     -1.328921
  H       0.094047      1.663446      1.269411
  H       0.738669      0.557107     -1.506994
  H      -1.454421      0.769829     -2.067610
  H      -3.726018     -0.134828     -2.250095
  H      -5.114680     -0.430491     -0.229301
  H      -4.204274      0.180586      1.985143
  H      -1.917936      1.076589      2.170947
  H       2.832779      1.132020     -2.320772
  H       3.493810      1.963161      1.047930
  H       4.146229      1.818512     -1.201022
  Br     -0.088831      3.356113     -0.523521
  Br     -2.053708      4.672482      1.758591
  Br     -3.405179      5.546183      3.408342
25
Coordinates from ORCA-job orca_input E -132.622665984955
  Br      0.921872     -1.087096      0.347056
  C      -0.146512      1.521655      0.223568
  C       0.948338      0.719739     -0.453449
  C       2.322466      1.275412     -0.301814
  O       2.603978      1.610986      0.978095
  C      -1.531431      0.979566      0.070550
  C      -2.051854      0.644893     -1.173485
  C      -3.332063      0.135995     -1.278219
  C      -4.109207     -0.038478     -0.142332
  C      -3.597951      0.299885      1.097835
  C      -2.313857      0.808674      1.201874
  C       3.149691      1.410054     -1.328371
  H       0.092657      1.671068      1.270509
  H       0.734905      0.558012     -1.502979
  H      -1.460435      0.786958     -2.068364
  H      -3.728330     -0.123689     -2.250466
  H      -5.111627     -0.435632     -0.227764
  H      -4.197136      0.168045      1.988436
  H      -1.914369      1.070497      2.172779
  H       2.832531      1.122673     -2.319301
  H       3.495609      1.965380      1.045596
  H       4.146385      1.811309     -1.200834
  Br     -0.085610      3.359107     -0.526931
  Br     -2.049496      4.668702      1.747889
  Br     -3.411574      5.532855      3.394572
25
Coordinates from ORCA-job orca_input E -132.622674068629
  Br      0.918650     -1.085940      0.350706
  C      -0.146765      1.524580      0.224595
  C       0.947356      0.720407     -0.451259
  C       2.322331      1.274545     -0.300911
  O       2.605097      1.611543      0.978226
  C      -1.531706      0.983043      0.071361
  C      -2.053038      0.651605     -1.172982
  C      -3.332734      0.140969     -1.277874
  C      -4.107671     -0.038884     -0.141481
  C      -3.595486      0.296397      1.099112
  C      -2.312235      0.807388      1.203237
  C       3.148633      1.406526     -1.328798
  H       0.092919      1.675524      1.271296
  H       0.732382      0.557077     -1.500169
  H      -1.463746      0.798565     -2.068487
  H      -3.729184     -0.115834     -2.250785
  H      -5.109446     -0.437728     -0.226838
  H      -4.192912      0.161127      1.990375
  H      -1.911402      1.066820      2.174245
  H       2.831514      1.115392     -2.318553
  H       3.496549      1.966936      1.043522
  H       4.144905      1.808910     -1.200997
  Br     -0.082155      3.360691     -0.528719
  Br     -2.047329      4.663926      1.741437
  Br     -3.417545      5.522986      3.384189
25
Coordinates from ORCA-job orca_input E -132.622673234003
  Br      0.916822     -1.085434      0.354486
  C      -0.146567      1.525863      0.225360
  C       0.946598      0.719819     -0.449905
  C       2.322006      1.273883     -0.300646
  O       2.605348      1.611884      0.977932
  C      -1.531751      0.985277      0.072241
  C      -2.053280      0.656090     -1.172541
  C      -3.332801      0.144788     -1.277690
  C      -4.106451     -0.038358     -0.141018
  C      -3.593786      0.294446      1.100006
  C      -2.310803      0.806316      1.204551
  C       3.147406      1.404901     -1.329593
  H       0.094090      1.677593      1.271749
  H       0.731216      0.554736     -1.498445
  H      -1.465272      0.806573     -2.068289
  H      -3.729547     -0.109952     -2.251015
  H      -5.107990     -0.437847     -0.226316
  H      -4.190693      0.157053      1.991292
  H      -1.908900      1.064112      2.175548
  H       2.830152      1.110369     -2.318223
  H       3.496551      1.968170      1.041980
  H       4.143016      1.809008     -1.201679
  Br     -0.079035      3.361164     -0.529768
  Br     -2.046830      4.659093      1.737905
  Br     -3.422520      5.517022      3.376527
25
Coordinates from ORCA-job orca_input E -132.622679807389
  Br      0.915603     -1.084916      0.359221
  C      -0.146054      1.526637      0.225921
  C       0.945951      0.718557     -0.448857
  C       2.321585      1.273118     -0.300764
  O       2.605065      1.612329      0.977352
  C      -1.531679      0.987233      0.073166
  C      -2.053372      0.660371     -1.172168
  C      -3.332748      0.148724     -1.277540
  C      -4.105343     -0.037428     -0.140613
  C      -3.592126      0.292694      1.100872
  C      -2.309247      0.805010      1.205907
  C       3.146355      1.403782     -1.330377
  H       0.095595      1.678810      1.271979
  H       0.730847      0.551488     -1.497177
  H      -1.466286      0.814063     -2.067942
  H      -3.730226     -0.103993     -2.251098
  H      -5.106791     -0.437187     -0.225821
  H      -4.188910      0.152992      1.991884
  H      -1.906399      1.061097      2.176948
  H       2.828778      1.106290     -2.317983
  H       3.495917      1.969588      1.040711
  H       4.141503      1.809213     -1.202952
  Br     -0.075945      3.361194     -0.530925
  Br     -2.047499      4.654215      1.735141
  Br     -3.427594      5.512689      3.369563
25
Coordinates from ORCA-job orca_input E -132.622688624860
  Br      0.914757     -1.084249      0.364155
  C      -0.145201      1.527295      0.226243
  C       0.945663      0.717190     -0.448086
  C       2.321417      1.272116     -0.301249
  O       2.604847      1.612830      0.976480
  C      -1.531429      0.989139      0.073919
  C      -2.053501      0.664189     -1.171793
  C      -3.332752      0.152472     -1.277248
  C      -4.104551     -0.035925     -0.140087
  C      -3.590628      0.291937      1.101704
  C      -2.307747      0.804365      1.207019
  C       3.145945      1.402554     -1.331070
  H       0.097130      1.679617      1.272050
  H       0.730911      0.548249     -1.496246
  H      -1.466935      0.820038     -2.067507
  H      -3.731199     -0.098677     -2.250824
  H      -5.106003     -0.435690     -0.225134
  H      -4.187343      0.150111      1.992433
  H      -1.904238      1.058941      2.178155
  H       2.827973      1.102951     -2.317923
  H       3.495253      1.971190      1.039483
  H       4.140993      1.808527     -1.204779
  Br     -0.072984      3.361230     -0.531973
  Br     -2.049528      4.649098      1.732862
  Br     -3.433870      5.507071      3.363865
25
Coordinates from ORCA-job orca_input E -132.622692108002
  Br      0.914260     -1.083698      0.368219
  C      -0.144240      1.527963      0.226198
  C       0.945777      0.716012     -0.447532
  C       2.321581      1.270959     -0.301743
  O       2.604684      1.613518      0.975666
  C      -1.531062      0.990843      0.074386
  C      -2.054039      0.667769     -1.171480
  C      -3.333228      0.156193     -1.276846
  C      -4.104128     -0.034238     -0.139304
  C      -3.589118      0.291437      1.102659
  C      -2.306220      0.803830      1.207895
  C       3.146348      1.401068     -1.331334
  H       0.098382      1.680568      1.271831
  H       0.731081      0.545616     -1.495531
  H      -1.467843      0.825109     -2.067179
  H      -3.732856     -0.093483     -2.250326
  H      -5.105632     -0.433901     -0.224088
  H      -4.185363      0.147450      1.993359
  H      -1.902132      1.056748      2.179218
  H       2.828283      1.100035     -2.317768
  H       3.494761      1.972634      1.038670
  H       4.141495      1.807095     -1.206306
  Br     -0.070643      3.361228     -0.533527
  Br     -2.052805      4.644682      1.730104
  Br     -3.440364      5.501132      3.359209
25
Coordinates from ORCA-job orca_input E -132.622695528302
  Br      0.913882     -1.083190      0.371711
  C      -0.143049      1.528863      0.225852
  C       0.946306      0.715069     -0.447016
  C       2.322159      1.269594     -0.302213
  O       2.604842      1.614483      0.974808
  C      -1.530486      0.992603      0.074694
  C      -2.054838      0.671341     -1.171045
  C      -3.334133      0.160251     -1.276163
  C      -4.104005     -0.031844     -0.138123
  C      -3.587527      0.291664      1.103850
  C      -2.304512      0.803755      1.208658
  C       3.147414      1.398938     -1.331430
  H       0.099580      1.682068      1.271353
  H       0.731169      0.543382     -1.494748
  H      -1.468949      0.829458     -2.066827
  H      -3.735021     -0.087982     -2.249492
  H      -5.105675     -0.431149     -0.222543
  H      -4.182884      0.145785      1.994839
  H      -1.899807      1.054877      2.180184
  H       2.829541      1.096688     -2.317613
  H       3.494692      1.974069      1.037871
  H       4.142672      1.804999     -1.207639
  Br     -0.068296      3.361332     -0.535600
  Br     -2.057611      4.639712      1.726193
  Br     -3.448483      5.491804      3.354888
25
Coordinates from ORCA-job orca_input E -132.622692439288
  Br      0.913597     -1.082791      0.374712
  C      -0.141694      1.529968      0.225315
  C       0.947132      0.714326     -0.446378
  C       2.323099      1.268128     -0.302530
  O       2.605424      1.615753      0.973938
  C      -1.529676      0.994434      0.074934
  C      -2.055752      0.675086     -1.170496
  C      -3.335370      0.164827     -1.275218
  C      -4.104029     -0.028722     -0.136558
  C      -3.585793      0.292496      1.105329
  C      -2.302543      0.804022      1.209434
  C       3.148857      1.396043     -1.331495
  H       0.100764      1.684201      1.270703
  H       0.731092      0.541409     -1.493721
  H      -1.470231      0.833600     -2.066484
  H      -3.737503     -0.081796     -2.248431
  H      -5.105966     -0.427453     -0.220537
  H      -4.179887      0.145092      1.996913
  H      -1.897032      1.053203      2.181134
  H       2.831389      1.092489     -2.317449
  H       3.495210      1.975449      1.036896
  H       4.144077      1.802490     -1.208703
  Br     -0.065941      3.361483     -0.538242
  Br     -2.063890      4.634014      1.720923
  Br     -3.458353      5.478818      3.350460
25
Coordinates from ORCA-job orca_input E -132.622693465753
  Br      0.913539     -1.082517      0.377304
  C      -0.140031      1.531090      0.224757
  C       0.948257      0.713684     -0.445671
  C       2.324441      1.266633     -0.302921
  O       2.606804      1.617060      0.972799
  C      -1.528485      0.996253      0.075202
  C      -2.056094      0.678065     -1.169736
  C      -3.336339      0.169205     -1.273986
  C      -4.104165     -0.024346     -0.134785
  C      -3.584373      0.295343      1.106876
  C      -2.300599      0.805655      1.210144
  C       3.150357      1.392509     -1.332041
  H       0.102175      1.686430      1.270066
  H       0.731076      0.539549     -1.492542
  H      -1.470707      0.835819     -2.065976
  H      -3.739338     -0.076352     -2.247096
  H      -5.106570     -0.422007     -0.218310
  H      -4.177397      0.147841      1.999155
  H      -1.894299      1.053524      2.181847
  H       2.833120      1.087604     -2.317672
  H       3.496582      1.976828      1.035159
  H       4.145400      1.799714     -1.210120
  Br     -0.063322      3.361798     -0.540590
  Br     -2.072028      4.626944      1.715500
  Br     -3.471023      5.460244      3.347087
25
Coordinates from ORCA-job orca_input E -132.622697105242
  Br      0.913766     -1.082412      0.379099
  C      -0.138726      1.531769      0.224373
  C       0.949195      0.713241     -0.445012
  C       2.325622      1.265729     -0.303085
  O       2.608321      1.618138      0.971933
  C      -1.527316      0.997213      0.075521
  C      -2.056013      0.680031     -1.169176
  C      -3.336929      0.172564     -1.273010
  C      -4.104234     -0.020649     -0.133435
  C      -3.583373      0.297812      1.108096
  C      -2.299002      0.806765      1.210817
  C       3.151318      1.389567     -1.332685
  H       0.103282      1.688264      1.269598
  H       0.731303      0.538178     -1.491544
  H      -1.470825      0.837277     -2.065656
  H      -3.740439     -0.072023     -2.246141
  H      -5.107126     -0.417167     -0.216660
  H      -4.175735      0.150815      2.000890
  H      -1.891916      1.053707      2.182441
  H       2.834111      1.083482     -2.317942
  H       3.498346      1.977446      1.033543
  H       4.146089      1.797678     -1.211269
  Br     -0.061669      3.361788     -0.542627
  Br     -2.079574      4.621707      1.711349
  Br     -3.481496      5.445649      3.345029
25
Coordinates from ORCA-job orca_input E -132.622698245480
  Br      0.914251     -1.082055      0.381304
  C      -0.137466      1.532402      0.224225
  C       0.950033      0.712903     -0.444230
  C       2.326799      1.265111     -0.303278
  O       2.610329      1.619048      0.970996
  C      -1.526028      0.998013      0.076027
  C      -2.055479      0.681805     -1.168598
  C      -3.337060      0.175713     -1.272024
  C      -4.104123     -0.016882     -0.132239
  C      -3.582515      0.300559      1.109200
  C      -2.297460      0.807965      1.211559
  C       3.151842      1.386537     -1.333728
  H       0.104436      1.689929      1.269358
  H       0.731895      0.536860     -1.490522
  H      -1.470607      0.838823     -2.065314
  H      -3.740908     -0.067983     -2.245235
  H      -5.107541     -0.412144     -0.215238
  H      -4.174615      0.154448      2.002310
  H      -1.889526      1.054239      2.182986
  H       2.834151      1.079200     -2.318399
  H       3.500768      1.977576      1.031437
  H       4.146527      1.795125     -1.212943
  Br     -0.060150      3.361785     -0.544355
  Br     -2.087705      4.616539      1.707908
  Br     -3.492868      5.431055      3.343242
25
Coordinates from ORCA-job orca_input E -132.622696364695
  Br      0.914602     -1.081492      0.383143
  C      -0.136754      1.532870      0.224355
  C       0.950431      0.712856     -0.443666
  C       2.327499      1.264947     -0.303463
  O       2.611928      1.619352      0.970385
  C      -1.525216      0.998495      0.076490
  C      -2.054995      0.683095     -1.168280
  C      -3.336865      0.177622     -1.271461
  C      -4.103858     -0.014859     -0.131629
  C      -3.581949      0.301920      1.109824
  C      -2.296506      0.808429      1.212119
  C       3.151905      1.384636     -1.334592
  H       0.105219      1.690913      1.269399
  H       0.732524      0.536176     -1.489915
  H      -1.470515      0.840641     -2.065143
  H      -3.740959     -0.065434     -2.244739
  H      -5.107547     -0.409457     -0.214526
  H      -4.174123      0.156122      2.002936
  H      -1.887970      1.054260      2.183394
  H       2.833431      1.076578     -2.318755
  H       3.502795      1.977023      1.029890
  H       4.146882      1.792709     -1.214413
  Br     -0.059363      3.361846     -0.545256
  Br     -2.093040      4.613824      1.706434
  Br     -3.500578      5.423497      3.341920
25
Coordinates from ORCA-job orca_input E -132.622699423015
  Br      0.914925     -1.080658      0.385137
  C      -0.136032      1.533477      0.224635
  C       0.950795      0.712972     -0.443209
  C       2.328209      1.264776     -0.303881
  O       2.613746      1.619213      0.969680
  C      -1.524495      0.999201      0.076992
  C      -2.054517      0.684462     -1.167918
  C      -3.336513      0.179347     -1.270902
  C      -4.103516     -0.013089     -0.131062
  C      -3.581387      0.303237      1.110399
  C      -2.295661      0.809044      1.212658
  C       3.151987      1.382894     -1.335609
  H       0.106191      1.691702      1.269587
  H       0.733154      0.535720     -1.489455
  H      -1.470461      0.842738     -2.064904
  H      -3.740915     -0.063285     -2.244173
  H      -5.107400     -0.407204     -0.213843
  H      -4.173760      0.157494      2.003388
  H      -1.886605      1.054501      2.183790
  H       2.832397      1.074365     -2.319241
  H       3.505090      1.975889      1.028286
  H       4.147639      1.789511     -1.216236
  Br     -0.058432      3.362156     -0.545669
  Br     -2.098331      4.611221      1.705757
  Br     -3.509127      5.416884      3.340243
