25
Coordinates from ORCA-job orca_input E -132.622699423015
  Br          0.91492478600829     -1.08065783516517      0.38513685714843
  C          -0.13603235002842      1.53347749188637      0.22463483577399
  C           0.95079549395455      0.71297219047651     -0.44320934385501
  C           2.32820897790648      1.26477633939660     -0.30388141992039
  O           2.61374581849220      1.61921347100994      0.96968038977254
  C          -1.52449486412978      0.99920089956759      0.07699158307234
  C          -2.05451665682375      0.68446215816131     -1.16791757233746
  C          -3.33651313633042      0.17934701262688     -1.27090206579544
  C          -4.10351639900404     -0.01308864048645     -0.13106193561544
  C          -3.58138732032016      0.30323749598563      1.11039900128541
  C          -2.29566124536809      0.80904413331073      1.21265840112722
  C           3.15198666716979      1.38289425636054     -1.33560920627783
  H           0.10619117165400      1.69170171874901      1.26958650564542
  H           0.73315448513356      0.53571969334186     -1.48945502428282
  H          -1.47046078215193      0.84273807678600     -2.06490422363364
  H          -3.74091461845972     -0.06328541827837     -2.24417342346768
  H          -5.10740042785043     -0.40720419662325     -0.21384326028826
  H          -4.17375972714444      0.15749381324915      2.00338843158837
  H          -1.88660522115669      1.05450081453066      2.18379039871097
  H           2.83239657338305      1.07436514358840     -2.31924052661764
  H           3.50509045310409      1.97588882007583      1.02828637514219
  H           4.14763875529761      1.78951135298161     -1.21623645885948
  Br         -0.05843224097144      3.36215588478060     -0.54566910659663
  Br         -2.09833096030075      4.61122103882724      1.70575745582524
  Br         -3.50912723206352      5.41688428486069      3.34024333245560
