25
substrate_opt_cation2_plus_br3
Br      1.56774     -1.43432       0.05963
 C     -0.13246      0.54080       0.48980
 C      1.01160      0.40268      -0.42176
 C      2.11194      1.37484      -0.17389
 O      2.44923      1.45191       1.13028
 C     -1.46539      0.40404       0.17688
 C     -1.93242      0.12836      -1.13524
 C     -3.27284      0.02030      -1.36600
 C     -4.17069      0.18332      -0.30953
 C     -3.74224      0.45279       0.98551
 C     -2.40130      0.56053       1.23306
 C      2.64714      2.07194      -1.16506
 H      0.12643      0.76493       1.51883
 H      0.75470      0.37121      -1.47099
 H     -1.23501      0.00056      -1.94902
 H     -3.64269     -0.18916      -2.35872
 H     -5.23127      0.09663      -0.50606
 H     -4.46154      0.57306       1.78179
 H     -2.03596      0.76661       2.23000
 H      2.29911      1.93003      -2.17665
 H      3.16196      2.08497       1.26303
 H      3.43717      2.78790      -0.98187
Br     -0.44699      3.87304      -0.81960
Br     -1.17397      4.99888       1.30201
Br     -2.01527      6.22072       3.42802
