23
Coordinates from ORCA-job orca_input_NEB-CI_converged E -105.796633234209
  Br         -0.70125636494831      3.44120604761888     -0.65207275186334
  C          -0.01169782852704      0.70215045071755     -0.87176287625378
  C           0.01933760220414      1.80002938300615      0.10850381594996
  C           1.49720478016958      2.08714797989918      0.45241217517753
  O           2.35800889023610      1.80151845730605     -0.33693011174815
  C          -0.32700529449907     -0.60960016483775     -0.60085390716899
  C           0.04956013504481     -1.57122017190206     -1.57111338079269
  C          -0.17193045615640     -2.90198593992648     -1.34259755366800
  C          -0.82079710615161     -3.28525698204888     -0.17459732229426
  C          -1.24562756681735     -2.35447502415516      0.77413248347563
  C          -0.99894155882432     -1.02590267392866      0.57596281671605
  C           1.74062467164475      2.67343212572537      1.79438663359644
  H           0.40819453036088      0.93198039292662     -1.84395508045956
  H          -0.55802053177542      1.60968706071409      1.00418660252648
  H           0.53542310817332     -1.22775085958769     -2.47353951096426
  H           0.14153880814389     -3.64916901121078     -2.05657027131190
  H          -1.00938936248419     -4.33647407159702      0.00018454390855
  H          -1.77221719177145     -2.69345040250589      1.65350720905678
  H          -1.35781765531049     -0.29254498441197      1.28228587781896
  H           1.01736434429712      3.45484804321336      2.00831771037998
  H           1.60091244706207      1.87634173656377      2.52516449783169
  H           2.75410993212011      3.05321388824542      1.86688847809610
  Br         -3.14757833219115      0.51627472017592     -2.12194007800921
