23
Coordinates from ORCA-job orca_input_product E -105.851391130733
  Br          1.70418911830444      3.26852740822143      0.05062820136953
  C          -0.02710703955877      1.05683985985757     -0.65740897236646
  C           1.07506479349310      1.43391853410312      0.30720968826075
  C           2.31737061764546      0.56974717566059      0.10652217939471
  O           2.62869883955307      0.20205276731357     -0.99956047079834
  C          -0.42139517928215     -0.38348821396065     -0.51843584633528
  C          -0.43790811185013     -1.19008910131554     -1.64650393849791
  C          -0.77531892546488     -2.52888702431559     -1.54561770160001
  C          -1.09692004287473     -3.07197633866859     -0.31332170968108
  C          -1.08423433359154     -2.26965794284363      0.81683607507571
  C          -0.75050112183320     -0.93139945346478      0.71524560904002
  C           3.07852800506368      0.22047560339035      1.33717591229334
  H           0.27948097498668      1.26573788682061     -1.67597874387634
  H           0.74165819194491      1.39687852331635      1.33885367263221
  H          -0.17919068871646     -0.76817457718349     -2.60858183107143
  H          -0.78388799039787     -3.14872048605850     -2.43187159368731
  H          -1.35932658437361     -4.11818933072568     -0.23272819249610
  H          -1.33880085951214     -2.68710186385067      1.78150097704447
  H          -0.76218137130040     -0.31228346276191      1.60235961892461
  H           3.22653935860800      1.10169153743398      1.95846178898558
  H           2.47942671119130     -0.48639392058830      1.91331666057035
  H           4.03075137260890     -0.23162512519053      1.07870550048343
  Br         -1.60624573464367      2.20087754481029     -0.37570688366445
