23
Coordinates from ORCA-job orca_input_reactant E -105.800068604161
  Br         -0.82574088232312      2.09273143967947     -0.68704923135622
  C           0.49475585300412     -0.24598520667207     -0.83296966176232
  C           0.42581583702552      0.84241706588535      0.14982328272137
  C           1.75334312695618      1.58145750534484      0.32562352576809
  O           2.63518398337857      1.42839785962480     -0.47946950222139
  C          -0.09192940618714     -1.47928792316592     -0.74355014748964
  C           0.11431427211578     -2.37811380673739     -1.82618228999240
  C          -0.39328213830958     -3.64581008066786     -1.77433600767291
  C          -1.12539021090078     -4.03319264894566     -0.65812583979545
  C          -1.36402205190204     -3.16668522256495      0.41122196401091
  C          -0.85979906955805     -1.90110771461916      0.37714068384746
  C           1.86117304002627      2.43609354830010      1.53693329382650
  H           1.07540106508748     -0.01897745702390     -1.71994419720441
  H          -0.00504803651473      0.57495784581935      1.10658558295761
  H           0.68375590799945     -2.04152685279013     -2.68143594568838
  H          -0.23796791392827     -4.33639610001028     -2.58953261907262
  H          -1.52968152707652     -5.03612440776379     -0.61737131497014
  H          -1.94709556532732     -3.50287516788285      1.25548235682049
  H          -1.04249948668042     -1.22551487101476      1.19860481449712
  H           0.94782130776036      3.00379394554027      1.69885581189404
  H           1.99609678882224      1.77763345852376      2.39636717239536
  H           2.71632933808147      3.09859438653520      1.45053829918809
  Br         -3.40939423154946     -1.00079959539442     -2.57730003070113
