23
Coordinates from ORCA-job orca_input_MEP E -105.800068602661
  Br     -0.907138      2.839528     -0.457480
  C       0.413358      0.500811     -0.603401
  C       0.344418      1.589214      0.379392
  C       1.671946      2.328254      0.555193
  O       2.553787      2.175194     -0.249900
  C      -0.173327     -0.732491     -0.513981
  C       0.032917     -1.631317     -1.596613
  C      -0.474680     -2.899014     -1.544767
  C      -1.206788     -3.286396     -0.428557
  C      -1.445419     -2.419889      0.640791
  C      -0.941196     -1.154311      0.606710
  C       1.779776      3.182890      1.766502
  H       0.994004      0.727819     -1.490375
  H      -0.086445      1.321754      1.336155
  H       0.602359     -1.294730     -2.451867
  H      -0.319365     -3.589600     -2.359963
  H      -1.611079     -4.289328     -0.387802
  H      -2.028493     -2.756079      1.485051
  H      -1.123897     -0.478718      1.428174
  H       0.866424      3.750590      1.928425
  H       1.914699      2.524430      2.625936
  H       2.634932      3.845391      1.680107
  Br     -3.490792     -0.254003     -2.347731
23
Coordinates from ORCA-job orca_input_MEP E -105.799870706793
  Br     -0.890251      2.927415     -0.492947
  C       0.355384      0.531469     -0.641751
  C       0.295904      1.616400      0.341677
  C       1.650780      2.293982      0.540122
  O       2.531319      2.124176     -0.263030
  C      -0.202968     -0.710286     -0.529650
  C       0.032178     -1.620349     -1.595053
  C      -0.433115     -2.902084     -1.517714
  C      -1.152795     -3.289557     -0.393096
  C      -1.419522     -2.410918      0.659770
  C      -0.955361     -1.131372      0.601079
  C       1.778374      3.111193      1.772361
  H       0.917733      0.761035     -1.539286
  H      -0.153857      1.355658      1.290952
  H       0.595032     -1.281602     -2.453768
  H      -0.252398     -3.602644     -2.319136
  H      -1.524997     -4.303523     -0.332432
  H      -1.992300     -2.748006      1.511081
  H      -1.161730     -0.445494      1.408601
  H       0.884654      3.708520      1.934943
  H       1.873334      2.425608      2.615670
  H       2.660540      3.740337      1.709898
  Br     -3.435937     -0.149957     -2.308291
23
Coordinates from ORCA-job orca_input_MEP E -105.799422853017
  Br     -0.870007      3.008322     -0.522811
  C       0.302051      0.558937     -0.676471
  C       0.251731      1.641882      0.307147
  C       1.630203      2.261546      0.526468
  O       2.509292      2.076002     -0.274894
  C      -0.229262     -0.690829     -0.543510
  C       0.032241     -1.610313     -1.593079
  C      -0.394584     -2.903221     -1.492587
  C      -1.103157     -3.290691     -0.360646
  C      -1.395337     -2.402129      0.677170
  C      -0.967712     -1.111269      0.596044
  C       1.775820      3.044884      1.776789
  H       0.847669      0.790107     -1.583425
  H      -0.214774      1.387628      1.249710
  H       0.588247     -1.269744     -2.455542
  H      -0.191047     -3.611831     -2.281588
  H      -1.446170     -4.313485     -0.282003
  H      -1.958797     -2.739910      1.534815
  H      -1.196164     -0.417096      1.390640
  H       0.901836      3.669725      1.941553
  H       1.834359      2.337109      2.604920
  H       2.681767      3.641567      1.735152
  Br     -3.388205     -0.057191     -2.273853
23
Coordinates from ORCA-job orca_input_MEP E -105.798813065910
  Br     -0.847542      3.084274     -0.550263
  C       0.250557      0.584840     -0.709361
  C       0.209569      1.666784      0.273981
  C       1.609283      2.229259      0.513115
  O       2.486459      2.028212     -0.286606
  C      -0.253105     -0.673001     -0.555963
  C       0.033114     -1.600460     -1.590528
  C      -0.356912     -2.902716     -1.468014
  C      -1.054954     -3.290146     -0.329296
  C      -1.371517     -2.392959      0.693970
  C      -0.978556     -1.092629      0.591607
  C       1.771984      2.979990      1.780110
  H       0.779805      0.817017     -1.625261
  H      -0.272465      1.419607      1.210488
  H       0.581749     -1.258401     -2.457164
  H      -0.131717     -3.618174     -2.245138
  H      -1.370035     -4.320340     -0.233584
  H      -1.926291     -2.731205      1.557455
  H      -1.229067     -0.391302      1.373299
  H       0.918677      3.631691      1.948243
  H       1.795491      2.253222      2.593409
  H       2.699801      3.543771      1.757437
  Br     -3.344329      0.032667     -2.241933
23
Coordinates from ORCA-job orca_input_MEP E -105.798124033163
  Br     -0.822604      3.155942     -0.575178
  C       0.200196      0.609461     -0.740716
  C       0.169195      1.691091      0.242106
  C       1.588126      2.197183      0.499790
  O       2.462858      1.981109     -0.298622
  C      -0.275259     -0.656436     -0.567317
  C       0.034651     -1.590586     -1.587431
  C      -0.319882     -2.900674     -1.443792
  C      -1.007912     -3.288081     -0.298837
  C      -1.348129     -2.383430      0.710237
  C      -0.988556     -1.075144      0.587468
  C       1.766998      2.916046      1.782320
  H       0.713383      0.842156     -1.665136
  H      -0.327554      1.451650      1.173048
  H       0.575541     -1.247441     -2.458530
  H      -0.073940     -3.621910     -2.209504
  H      -1.296071     -4.324456     -0.186803
  H      -1.894672     -2.721884      1.579210
  H      -1.260674     -0.367683      1.356380
  H       0.935259      3.593868      1.954806
  H       1.756521      2.173010      2.581118
  H       2.714905      3.446506      1.777083
  Br     -3.302382      0.119702     -2.211700
23
Coordinates from ORCA-job orca_input_MEP E -105.797862203988
  Br     -0.798295      3.247059     -0.597452
  C       0.149217      0.636001     -0.779280
  C       0.134084      1.730629      0.201142
  C       1.572479      2.187307      0.494797
  O       2.448166      1.947723     -0.295574
  C      -0.286580     -0.646383     -0.582153
  C       0.030920     -1.596035     -1.591136
  C      -0.286771     -2.914245     -1.420075
  C      -0.961780     -3.299056     -0.266747
  C      -1.323254     -2.382738      0.722792
  C      -0.992221     -1.067576      0.577629
  C       1.773117      2.866925      1.799139
  H       0.635684      0.868453     -1.719182
  H      -0.398299      1.506551      1.116277
  H       0.550947     -1.253289     -2.474656
  H      -0.024619     -3.651966     -2.163843
  H      -1.219980     -4.341673     -0.133842
  H      -1.862795     -2.724102      1.593343
  H      -1.284448     -0.347175      1.326211
  H       0.972575      3.577038      1.988926
  H       1.728777      2.098494      2.572200
  H       2.741329      3.355836      1.832606
  Br     -3.298254      0.202221     -2.201121
23
Coordinates from ORCA-job orca_input_MEP E -105.797576072363
  Br     -0.783836      3.280516     -0.607699
  C       0.125117      0.646993     -0.793920
  C       0.115837      1.742257      0.186338
  C       1.562031      2.172157      0.488812
  O       2.435891      1.924909     -0.301212
  C      -0.294853     -0.639603     -0.586348
  C       0.032621     -1.592078     -1.589099
  C      -0.268836     -2.912989     -1.408321
  C      -0.939353     -3.297591     -0.252165
  C      -1.311565     -2.378242      0.730702
  C      -0.995208     -1.060268      0.576605
  C       1.769682      2.836794      1.799754
  H       0.602526      0.879435     -1.738505
  H      -0.424348      1.522674      1.098250
  H       0.547930     -1.248749     -2.475274
  H       0.002281     -3.652967     -2.146735
  H      -1.185559     -4.342300     -0.112010
  H      -1.848115     -2.719576      1.603197
  H      -1.297535     -0.337108      1.318717
  H       0.980310      3.558656      1.992320
  H       1.709608      2.062073      2.565571
  H       2.746063      3.308869      1.840612
  Br     -3.280688      0.246138     -2.189591
23
Coordinates from ORCA-job orca_input_MEP E -105.797391454394
  Br     -0.773601      3.302136     -0.614071
  C       0.108889      0.654186     -0.803688
  C       0.103980      1.749901      0.176468
  C       1.554793      2.162040      0.484878
  O       2.427369      1.909685     -0.304895
  C      -0.299791     -0.635373     -0.588898
  C       0.033997     -1.589553     -1.587525
  C      -0.256856     -2.912057     -1.400339
  C      -0.924368     -3.296438     -0.242420
  C      -1.303596     -2.375299      0.735976
  C      -0.996620     -1.055683      0.575998
  C       1.767040      2.816729      1.799969
  H       0.579834      0.886480     -1.751541
  H      -0.441622      1.533826      1.086000
  H       0.545825     -1.246073     -2.475650
  H       0.020012     -3.653425     -2.135226
  H      -1.162767     -4.342291     -0.097533
  H      -1.838375     -2.716536      1.609584
  H      -1.305755     -0.330913      1.313735
  H       0.985528      3.546348      1.994893
  H       1.696827      2.038350      2.561112
  H       2.748564      3.277437      1.845616
  Br     -3.269306      0.276524     -2.182442
23
Coordinates from ORCA-job orca_input_MEP E -105.797224608439
  Br     -0.763422      3.321418     -0.619685
  C       0.093404      0.660757     -0.812790
  C       0.092959      1.756666      0.167237
  C       1.547546      2.152133      0.480910
  O       2.418840      1.895242     -0.308699
  C      -0.304149     -0.631494     -0.591058
  C       0.035557     -1.586992     -1.585797
  C      -0.245485     -2.910774     -1.392661
  C      -0.910173     -3.294927     -0.233224
  C      -1.295973     -2.372414      0.740981
  C      -0.997598     -1.051462      0.575471
  C       1.763961      2.797517      1.799709
  H       0.558034      0.892755     -1.763749
  H      -0.457482      1.544562      1.074625
  H       0.543963     -1.243637     -2.475813
  H       0.036702     -3.653145     -2.124367
  H      -1.141335     -4.341626     -0.083926
  H      -1.829180     -2.713405      1.615552
  H      -1.313314     -0.325525      1.309077
  H       0.990242      3.534482      1.997295
  H       1.684320      2.016259      2.556767
  H       2.750139      3.247310      1.849547
  Br     -3.257556      0.306300     -2.175403
23
Coordinates from ORCA-job orca_input_MEP E -105.797068330816
  Br     -0.754295      3.340699     -0.625490
  C       0.078601      0.667158     -0.821631
  C       0.082031      1.763555      0.158324
  C       1.540724      2.142689      0.477175
  O       2.410611      1.881228     -0.312375
  C      -0.308343     -0.627848     -0.593102
  C       0.037059     -1.584722     -1.584162
  C      -0.234407     -2.909847     -1.385336
  C      -0.896473     -3.293814     -0.224294
  C      -1.288539     -2.369704      0.745938
  C      -0.998576     -1.047339      0.575264
  C       1.761243      2.779035      1.799715
  H       0.536777      0.899079     -1.775785
  H      -0.473218      1.554395      1.063625
  H       0.542364     -1.241096     -2.475907
  H       0.052877     -3.653342     -2.114020
  H      -1.120777     -4.341496     -0.070872
  H      -1.820384     -2.710589      1.621442
  H      -1.320485     -0.319924      1.304876
  H       0.994673      3.522950      1.999164
  H       1.672246      1.994628      2.552466
  H       2.751953      3.218389      1.853481
  Br     -3.245667      0.335914     -2.168500
23
Coordinates from ORCA-job orca_input_MEP E -105.796926024337
  Br     -0.745002      3.358942     -0.630931
  C       0.063723      0.673399     -0.830347
  C       0.071311      1.770187      0.149511
  C       1.533664      2.133228      0.473348
  O       2.402145      1.867341     -0.316129
  C      -0.312189     -0.624307     -0.594956
  C       0.038744     -1.582386     -1.582358
  C      -0.223473     -2.908677     -1.377998
  C      -0.882975     -3.292453     -0.215501
  C      -1.281143     -2.366961      0.750806
  C      -0.999262     -1.043350      0.575045
  C       1.758250      2.760623      1.799439
  H       0.515513      0.905130     -1.787603
  H      -0.488521      1.564318      1.052763
  H       0.540826     -1.238701     -2.475883
  H       0.068765     -3.653129     -2.103742
  H      -1.100545     -4.340942     -0.058021
  H      -1.811681     -2.707658      1.627175
  H      -1.327447     -0.314710      1.300665
  H       0.999080      3.511377      2.001094
  H       1.660125      1.973509      2.548120
  H       2.753243      3.189538      1.856943
  Br     -3.233151      0.365679     -2.161439
23
Coordinates from ORCA-job orca_input_MEP E -105.796799040496
  Br     -0.735454      3.375989     -0.635772
  C       0.048564      0.679437     -0.838909
  C       0.060749      1.776370      0.140866
  C       1.526253      2.123640      0.469246
  O       2.393317      1.853618     -0.320155
  C      -0.315567     -0.620949     -0.596479
  C       0.040737     -1.579914     -1.580291
  C      -0.212724     -2.907151     -1.370639
  C      -0.869785     -3.290749     -0.206906
  C      -1.273811     -2.364183      0.755591
  C      -0.999521     -1.039555      0.574896
  C       1.754780      2.742285      1.798657
  H       0.494089      0.910744     -1.799136
  H      -0.503092      1.574299      1.042325
  H       0.539416     -1.236427     -2.475678
  H       0.084224     -3.652268     -2.093650
  H      -1.080862     -4.339824     -0.045504
  H      -1.803188     -2.704535      1.632702
  H      -1.334113     -0.310016      1.296513
  H       1.003287      3.499756      2.003070
  H       1.647827      1.953025      2.543652
  H       2.753810      3.160797      1.859597
  Br     -3.218937      0.395612     -2.153995
23
Coordinates from ORCA-job orca_input_MEP E -105.796691650524
  Br     -0.726820      3.393420     -0.640588
  C       0.033882      0.685334     -0.847259
  C       0.050121      1.782707      0.132475
  C       1.519119      2.114368      0.465243
  O       2.384595      1.840171     -0.324202
  C      -0.318811     -0.617824     -0.597864
  C       0.042715     -1.577716     -1.578239
  C      -0.202184     -2.905995     -1.363545
  C      -0.857013     -3.289449     -0.198525
  C      -1.266608     -2.361624      0.760386
  C      -0.999751     -1.035859      0.575079
  C       1.751561      2.724540      1.798030
  H       0.472685      0.916509     -1.810666
  H      -0.517700      1.583490      1.032223
  H       0.538298     -1.234068     -2.475347
  H       0.099220     -3.651859     -2.084039
  H      -1.062070     -4.339231     -0.033529
  H      -1.795083     -2.701759      1.638192
  H      -1.340402     -0.305127      1.292844
  H       1.007143      3.488374      2.004459
  H       1.635915      1.932857      2.539143
  H       2.754529      3.133087      1.862128
  Br     -3.203341      0.425655     -2.146398
23
Coordinates from ORCA-job orca_input_MEP E -105.796607225035
  Br     -0.718067      3.409962     -0.644910
  C       0.018742      0.691124     -0.855580
  C       0.039686      1.788765      0.124234
  C       1.511836      2.105147      0.461085
  O       2.375763      1.826981     -0.328331
  C      -0.321788     -0.614863     -0.599063
  C       0.044885     -1.575495     -1.575994
  C      -0.191835     -2.904674     -1.356456
  C      -0.844525     -3.288012     -0.190312
  C      -1.259474     -2.359107      0.765065
  C      -0.999687     -1.032349      0.575267
  C       1.748085      2.707036      1.797075
  H       0.451252      0.921912     -1.821945
  H      -0.531716      1.592629      1.022421
  H       0.537225     -1.231864     -2.474883
  H       0.113825     -3.651120     -2.074573
  H      -1.043757     -4.338344     -0.021837
  H      -1.787154     -2.698916      1.643481
  H      -1.346454     -0.300645      1.289176
  H       1.010893      3.477024      2.005956
  H       1.624076      1.913338      2.534560
  H       2.754770      3.105713      1.864204
  Br     -3.186582      0.455759     -2.138642
23
Coordinates from ORCA-job orca_input_MEP E -105.796546965949
  Br     -0.709205      3.425106     -0.648594
  C       0.003259      0.696740     -0.863735
  C       0.029655      1.794271      0.116312
  C       1.504496      2.096073      0.456744
  O       2.366900      1.814240     -0.332519
  C      -0.324458     -0.612076     -0.600052
  C       0.047228     -1.573221     -1.573564
  C      -0.181864     -2.903110     -1.349438
  C      -0.832528     -3.286397     -0.182404
  C      -1.252521     -2.356670      0.769545
  C      -0.999317     -1.029103      0.575410
  C       1.744297      2.690079      1.795716
  H       0.430105      0.926812     -1.832761
  H      -0.544716      1.601527      1.013181
  H       0.536203     -1.229874     -2.474273
  H       0.127781     -3.649879     -2.065387
  H      -1.026233     -4.337088     -0.010613
  H      -1.779522     -2.695992      1.648457
  H      -1.352185     -0.296734      1.285504
  H       1.014385      3.465886      2.007556
  H       1.612417      1.894849      2.529932
  H       2.754397      3.079073      1.865673
  Br     -3.168572      0.485487     -2.130693
23
Coordinates from ORCA-job orca_input_MEP E -105.796532845356
  Br     -0.701256      3.441206     -0.652073
  C      -0.011698      0.702150     -0.871763
  C       0.019338      1.800029      0.108504
  C       1.497205      2.087148      0.452412
  O       2.358009      1.801518     -0.336930
  C      -0.327005     -0.609600     -0.600854
  C       0.049560     -1.571220     -1.571113
  C      -0.171930     -2.901986     -1.342598
  C      -0.820797     -3.285257     -0.174597
  C      -1.245628     -2.354475      0.774132
  C      -0.998942     -1.025903      0.575963
  C       1.740625      2.673432      1.794387
  H       0.408195      0.931980     -1.843955
  H      -0.558021      1.609687      1.004187
  H       0.535423     -1.227751     -2.473540
  H       0.141539     -3.649169     -2.056570
  H      -1.009389     -4.336474      0.000185
  H      -1.772217     -2.693450      1.653507
  H      -1.357818     -0.292545      1.282286
  H       1.017364      3.454848      2.008318
  H       1.600912      1.876342      2.525164
  H       2.754110      3.053214      1.866888
  Br     -3.147578      0.516275     -2.121940
23
Coordinates from ORCA-job orca_input_MEP E -105.796569051354
  Br     -0.692834      3.456735     -0.655240
  C      -0.028362      0.707806     -0.880300
  C       0.008855      1.805555      0.100529
  C       1.489583      2.077977      0.447819
  O       2.348889      1.788650     -0.341547
  C      -0.329552     -0.607180     -0.601632
  C       0.052115     -1.569087     -1.568392
  C      -0.161942     -2.900626     -1.335520
  C      -0.809011     -3.283965     -0.166724
  C      -1.238633     -2.352286      0.778674
  C      -0.998387     -1.022808      0.576344
  C       1.736579      2.656569      1.792711
  H       0.385769      0.936975     -1.855166
  H      -0.571032      1.618096      0.995243
  H       0.534588     -1.225702     -2.472651
  H       0.155317     -3.648016     -2.047604
  H      -0.992456     -4.335569      0.011080
  H      -1.764814     -2.690730      1.658493
  H      -1.363460     -0.288693      1.278809
  H       1.020322      3.443586      2.009241
  H       1.589179      1.857984      2.520239
  H       2.753343      3.026951      1.867783
  Br     -3.124057      0.547776     -2.112191
23
Coordinates from ORCA-job orca_input_MEP E -105.796656965382
  Br     -0.684743      3.470440     -0.657581
  C      -0.045208      0.713154     -0.888509
  C      -0.000874      1.810362      0.093188
  C       1.482282      2.069386      0.443349
  O       2.340243      1.776872     -0.345916
  C      -0.331746     -0.605127     -0.602209
  C       0.054737     -1.567095     -1.565593
  C      -0.152831     -2.899249     -1.328850
  C      -0.798297     -3.282768     -0.159509
  C      -1.232134     -2.350416      0.782784
  C      -0.997591     -1.020183      0.576597
  C       1.732514      2.641169      1.790812
  H       0.364564      0.941347     -1.865434
  H      -0.582672      1.625941      0.987155
  H       0.533823     -1.224026     -2.471680
  H       0.167686     -3.646643     -2.039373
  H      -0.977187     -4.334578      0.020958
  H      -1.758044     -2.688202      1.662939
  H      -1.368381     -0.285617      1.275512
  H       1.022923      3.433204      2.010173
  H       1.578415      1.841568      2.515616
  H       2.752113      3.002915      1.868105
  Br     -3.099592      0.577546     -2.102534
23
Coordinates from ORCA-job orca_input_MEP E -105.796838785082
  Br     -0.678197      3.484018     -0.658839
  C      -0.059637      0.717702     -0.895516
  C      -0.009885      1.814978      0.086858
  C       1.475549      2.062008      0.439410
  O       2.332208      1.766321     -0.350101
  C      -0.333189     -0.603870     -0.602294
  C       0.057088     -1.565723     -1.562996
  C      -0.144965     -2.898600     -1.323128
  C      -0.789236     -3.282345     -0.153319
  C      -1.226473     -2.349264      0.786478
  C      -0.996699     -1.018180      0.577240
  C       1.728942      2.628018      1.788923
  H       0.344336      0.945414     -1.875000
  H      -0.593576      1.632344      0.980167
  H       0.533323     -1.222609     -2.470626
  H       0.178225     -3.646038     -2.032496
  H      -0.964590     -4.334482      0.029124
  H      -1.752322     -2.686583      1.666907
  H      -1.372606     -0.282955      1.273007
  H       1.024679      3.424249      2.010129
  H       1.569253      1.827438      2.511428
  H       2.750955      2.982726      1.867724
  Br     -3.073184      0.605431     -2.093081
23
Coordinates from ORCA-job orca_input_MEP E -105.797109699799
  Br     -0.671819      3.496170     -0.659040
  C      -0.075619      0.722188     -0.902683
  C      -0.018635      1.818811      0.080921
  C       1.468986      2.055017      0.435446
  O       2.324682      1.756833     -0.354135
  C      -0.334443     -0.603052     -0.602206
  C       0.059649     -1.564524     -1.560151
  C      -0.137993     -2.898034     -1.317767
  C      -0.781345     -3.282213     -0.147810
  C      -1.221282     -2.348573      0.789716
  C      -0.995566     -1.016726      0.577693
  C       1.725290      2.616335      1.786727
  H       0.325114      0.948985     -1.883705
  H      -0.603128      1.638207      0.974127
  H       0.532902     -1.221525     -2.469370
  H       0.187255     -3.645246     -2.026443
  H      -0.953789     -4.334527      0.036235
  H      -1.747248     -2.685209      1.670337
  H      -1.376046     -0.281104      1.270669
  H       1.026010      3.416297      2.010018
  H       1.561093      1.815267      2.507601
  H       2.749361      2.964967      1.866660
  Br     -3.043430      0.631657     -2.082838
23
Coordinates from ORCA-job orca_input_MEP E -105.797474335817
  Br     -0.666427      3.506954     -0.658322
  C      -0.090789      0.726216     -0.909248
  C      -0.026490      1.822073      0.075810
  C       1.462898      2.049093      0.431896
  O       2.317838      1.748716     -0.357801
  C      -0.335074     -0.602836     -0.601812
  C       0.062162     -1.563730     -1.557342
  C      -0.132252     -2.897841     -1.313140
  C      -0.775011     -3.282524     -0.143266
  C      -1.216852     -2.348429      0.792397
  C      -0.994222     -1.015865      0.578134
  C       1.721940      2.606749      1.784482
  H       0.307567      0.952033     -1.891423
  H      -0.611432      1.643125      0.969056
  H       0.532643     -1.220862     -2.468043
  H       0.194453     -3.644728     -2.021500
  H      -0.945408     -4.334951      0.041850
  H      -1.743093     -2.684364      1.673118
  H      -1.378657     -0.279963      1.268745
  H       1.026851      3.409761      2.009656
  H       1.554442      1.805502      2.504305
  H       2.747637      2.950560      1.865076
  Br     -3.012722      0.655309     -2.072629
23
Coordinates from ORCA-job orca_input_MEP E -105.797987898138
  Br     -0.661958      3.517809     -0.656810
  C      -0.106309      0.730166     -0.915810
  C      -0.034378      1.825311      0.070985
  C       1.456702      2.043757      0.428472
  O       2.311062      1.741118     -0.361466
  C      -0.335210     -0.603258     -0.601104
  C       0.064785     -1.563352     -1.554369
  C      -0.127192     -2.898172     -1.308869
  C      -0.769679     -3.283491     -0.139263
  C      -1.212786     -2.348904      0.794804
  C      -0.992586     -1.015511      0.578680
  C       1.718704      2.598400      1.782052
  H       0.289972      0.954973     -1.898991
  H      -0.619542      1.647480      0.964420
  H       0.532517     -1.220496     -2.466536
  H       0.200552     -3.644685     -2.017225
  H      -0.938688     -4.336064      0.046479
  H      -1.739475     -2.684106      1.675581
  H      -1.380763     -0.279258      1.267080
  H       1.027256      3.404084      2.008879
  H       1.548725      1.797092      2.501222
  H       2.745824      2.938230      1.862938
  Br     -2.977534      0.678875     -2.061149
23
Coordinates from ORCA-job orca_input_MEP E -105.800709106501
  Br     -0.640925      3.552435     -0.658232
  C      -0.173309      0.747971     -0.944552
  C      -0.061020      1.836567      0.052076
  C       1.436057      2.021607      0.415534
  O       2.289015      1.712608     -0.373737
  C      -0.343320     -0.601715     -0.602713
  C       0.071577     -1.557963     -1.545103
  C      -0.107092     -2.895396     -1.292078
  C      -0.746019     -3.283131     -0.122490
  C      -1.197529     -2.347018      0.803356
  C      -0.991999     -1.010526      0.576585
  C       1.707718      2.562330      1.775142
  H       0.236970      0.966119     -1.923067
  H      -0.646320      1.666825      0.946933
  H       0.530230     -1.215968     -2.462436
  H       0.228343     -3.640337     -1.998650
  H      -0.904098     -4.335829      0.069058
  H      -1.722934     -2.678778      1.686290
  H      -1.393379     -0.273915      1.257562
  H       1.032775      3.379848      2.009288
  H       1.524026      1.760393      2.490108
  H       2.740972      2.883338      1.860436
  Br     -2.869741      0.750538     -2.019312
23
Coordinates from ORCA-job orca_input_MEP E -105.800849339686
  Br     -0.592125      3.559818     -0.686205
  C      -0.217001      0.771225     -0.962568
  C      -0.083438      1.835702      0.039271
  C       1.420899      1.966547      0.394578
  O       2.270186      1.664326     -0.401245
  C      -0.398995     -0.575201     -0.620351
  C       0.064035     -1.519215     -1.544082
  C      -0.074161     -2.855716     -1.274600
  C      -0.701034     -3.246750     -0.099071
  C      -1.187530     -2.314913      0.814955
  C      -1.036706     -0.977914      0.563904
  C       1.692027      2.482069      1.763188
  H       0.251110      0.978857     -1.913700
  H      -0.648100      1.674348      0.949233
  H       0.539581     -1.175520     -2.451105
  H       0.296111     -3.587641     -1.976577
  H      -0.820842     -4.301668      0.110895
  H      -1.687695     -2.641446      1.714728
  H      -1.451980     -0.249741      1.244112
  H       1.034987      3.316905      1.988910
  H       1.470914      1.685360      2.474345
  H       2.737275      2.773808      1.845302
  Br     -2.877519      0.736759     -1.973917
23
Coordinates from ORCA-job orca_input_MEP E -105.819265151902
  Br     -0.537843      3.624047     -0.697961
  C      -0.392687      0.818729     -1.039908
  C      -0.129336      1.856207     -0.001716
  C       1.376590      1.915540      0.366811
  O       2.225549      1.600835     -0.426451
  C      -0.427726     -0.566712     -0.631028
  C       0.073465     -1.500911     -1.527676
  C      -0.027825     -2.841193     -1.237234
  C      -0.642827     -3.237061     -0.059091
  C      -1.154002     -2.302980      0.833150
  C      -1.046260     -0.961972      0.552573
  C       1.669520      2.394677      1.750677
  H       0.158186      1.001461     -1.953523
  H      -0.699578      1.722129      0.910384
  H       0.532546     -1.160817     -2.445404
  H       0.364961     -3.569710     -1.931333
  H      -0.729349     -4.290371      0.168765
  H      -1.646583     -2.621651      1.740252
  H      -1.486759     -0.234380      1.219400
  H       1.053470      3.255736      1.994363
  H       1.411012      1.597804      2.448781
  H       2.726417      2.638025      1.847650
  Br     -2.670941      0.862566     -1.881480
23
Coordinates from ORCA-job orca_input_MEP E -105.839259907646
  Br     -0.493444      3.664983     -0.708696
  C      -0.517404      0.852890     -1.093599
  C      -0.160923      1.867641     -0.032735
  C       1.341307      1.874963      0.344781
  O       2.189915      1.551329     -0.447110
  C      -0.456239     -0.551880     -0.644307
  C       0.078442     -1.483780     -1.517596
  C       0.009176     -2.825071     -1.209173
  C      -0.596235     -3.224971     -0.028101
  C      -1.128278     -2.289396      0.847696
  C      -1.057932     -0.948245      0.542873
  C       1.650785      2.324907      1.739646
  H       0.091679      1.016947     -1.975387
  H      -0.736690      1.759938      0.880790
  H       0.527480     -1.148344     -2.442334
  H       0.419430     -3.552017     -1.895511
  H      -0.656078     -4.276741      0.214356
  H      -1.613587     -2.603857      1.760505
  H      -1.515446     -0.222568      1.201157
  H       1.068181      3.205182      1.998407
  H       1.362920      1.529432      2.427769
  H       2.715319      2.529404      1.847732
  Br     -2.522377      0.949255     -1.811164
23
Coordinates from ORCA-job orca_input_MEP E -105.846605320793
  Br     -0.440446      3.702420     -0.723558
  C      -0.580654      0.879611     -1.122185
  C      -0.185555      1.883250     -0.060679
  C       1.307769      1.831783      0.324234
  O       2.149813      1.494962     -0.470302
  C      -0.487472     -0.531534     -0.659506
  C       0.080135     -1.463051     -1.510805
  C       0.051816     -2.802266     -1.179064
  C      -0.541013     -3.204350      0.007232
  C      -1.100518     -2.268592      0.864509
  C      -1.074315     -0.930503      0.533125
  C       1.629550      2.243187      1.728500
  H       0.030381      1.033797     -2.000717
  H      -0.775524      1.802263      0.847171
  H       0.522229     -1.133181     -2.440843
  H       0.483909     -3.527806     -1.853561
  H      -0.568819     -4.253636      0.267490
  H      -1.575012     -2.580380      1.783948
  H      -1.550028     -0.208127      1.182013
  H       1.085368      3.143463      2.003038
  H       1.305127      1.449526      2.402164
  H       2.700574      2.400473      1.847627
  Br     -2.467313      1.038689     -1.769832
23
Coordinates from ORCA-job orca_input_MEP E -105.849033444714
  Br     -0.384499      3.732006     -0.741117
  C      -0.612545      0.901800     -1.139259
  C      -0.200688      1.901157     -0.082810
  C       1.280277      1.790209      0.307707
  O       2.110350      1.437522     -0.493074
  C      -0.516319     -0.511341     -0.673382
  C       0.079798     -1.441923     -1.506461
  C       0.095072     -2.775889     -1.149578
  C      -0.483219     -3.177531      0.043578
  C      -1.073543     -2.243774      0.881547
  C      -1.092262     -0.911293      0.524320
  C       1.608541      2.157879      1.719187
  H      -0.019055      1.050566     -2.029148
  H      -0.810352      1.844596      0.813884
  H       0.517239     -1.116951     -2.440500
  H       0.551848     -3.499148     -1.809703
  H      -0.476447     -4.222526      0.322959
  H      -1.535107     -2.553351      1.808060
  H      -1.586497     -0.192717      1.163482
  H       1.102796      3.076131      2.008011
  H       1.242925      1.366518      2.374000
  H       2.683413      2.264268      1.847762
  Br     -2.481728      1.123792     -1.749465
23
Coordinates from ORCA-job orca_input_MEP E -105.850375298913
  Br     -0.330873      3.754540     -0.758444
  C      -0.642128      0.922402     -1.156530
  C      -0.211902      1.916834     -0.102690
  C       1.257885      1.751797      0.293597
  O       2.075556      1.384206     -0.513441
  C      -0.543119     -0.492170     -0.686584
  C       0.079011     -1.422065     -1.502912
  C       0.135525     -2.749339     -1.122281
  C      -0.428536     -3.148819      0.077922
  C      -1.048827     -2.218703      0.897493
  C      -1.109028     -0.893025      0.516395
  C       1.588958      2.076730      1.711605
  H      -0.060817      1.065410     -2.056019
  H      -0.838253      1.883509      0.783665
  H       0.512762     -1.101621     -2.440573
  H       0.616889     -3.469525     -1.768055
  H      -0.387983     -4.187753      0.375858
  H      -1.497766     -2.525953      1.830936
  H      -1.621120     -0.178560      1.146435
  H       1.118487      3.009605      2.013282
  H       1.182557      1.288470      2.345830
  H       2.665263      2.133855      1.848026
  Br     -2.512541      1.200177     -1.733516
23
Coordinates from ORCA-job orca_input_MEP E -105.851111823538
  Br     -0.279105      3.773105     -0.775088
  C      -0.673825      0.942141     -1.174061
  C      -0.222111      1.930381     -0.122722
  C       1.236847      1.714466      0.279512
  O       2.043931      1.333666     -0.532227
  C      -0.569880     -0.473999     -0.699969
  C       0.078301     -1.402517     -1.499223
  C       0.174391     -2.722159     -1.096087
  C      -0.376125     -3.119037      0.110909
  C      -1.025106     -2.193353      0.912746
  C      -1.124546     -0.875569      0.508661
  C       1.569307      1.998007      1.704097
  H      -0.101059      1.078828     -2.081571
  H      -0.861117      1.920097      0.754889
  H       0.508567     -1.087262     -2.440579
  H       0.679718     -3.438985     -1.727882
  H      -0.302576     -4.150545      0.427015
  H      -1.462193     -2.498363      1.853025
  H      -1.654107     -0.165994      1.130320
  H       1.132696      2.943246      2.018963
  H       1.123723      1.214149      2.317627
  H       2.645351      2.007527      1.847868
  Br     -2.541083      1.272167     -1.716224
23
Coordinates from ORCA-job orca_input_MEP E -105.851358762199
  Br     -0.228803      3.789527     -0.790383
  C      -0.703922      0.960273     -1.190193
  C      -0.230981      1.943454     -0.142747
  C       1.215805      1.677292      0.265130
  O       2.013811      1.284760     -0.550131
  C      -0.596773     -0.457566     -0.713144
  C       0.077549     -1.383214     -1.495374
  C       0.212572     -2.693746     -1.070309
  C      -0.324777     -3.087954      0.143275
  C      -1.001685     -2.167359      0.927770
  C      -1.139447     -0.859015      0.501283
  C       1.548675      1.919971      1.695573
  H      -0.141407      1.091446     -2.107521
  H      -0.880944      1.955077      0.725720
  H       0.504397     -1.074006     -2.440219
  H       0.741355     -3.406818     -1.688071
  H      -0.218804     -4.111215      0.477375
  H      -1.427428     -2.470357      1.874648
  H      -1.685812     -0.155132      1.114836
  H       1.146176      2.875905      2.025163
  H       1.066054      1.142114      2.289325
  H       2.622796      1.882837      1.846631
  Br     -2.568408      1.343726     -1.698637
