23
orca_input_MEP_trj
Br      1.71362      3.26475       0.02678
 C     -0.02734      1.05572      -0.65694
 C      1.07854      1.43487       0.30296
 C      2.31762      0.56494       0.11040
 O      2.62861      0.18544      -0.99173
 C     -0.42096     -0.38446      -0.51912
 C     -0.44354     -1.18806      -1.64917
 C     -0.78111     -2.52696      -1.55005
 C     -1.09674     -3.07294      -0.31743
 C     -1.07797     -2.27346       0.81469
 C     -0.74445     -0.93504       0.71474
 C      3.07570      0.22484       1.34570
 H      0.27288      1.26694      -1.67693
 H      0.74620      1.40893       1.33538
 H     -0.18968     -0.76398      -2.61160
 H     -0.79486     -3.14445      -2.43785
 H     -1.35904     -4.11927      -0.23804
 H     -1.32777     -2.69329       1.77956
 H     -0.75111     -0.31778       1.60322
 H      3.22042      1.10999       1.96222
 H      2.47530     -0.47900       1.92424
 H      4.02921     -0.22800       1.09322
Br     -1.60484      2.19903      -0.36315
