23
orca_input_MEP_trj
Br     -0.87734      1.93048      -0.57022
 C      0.57032     -0.28084      -0.75607
 C      0.50727      0.78670       0.23518
 C      1.77775      1.63034       0.32749
 O      2.62656      1.52913      -0.52078
 C     -0.04757     -1.51159      -0.69767
 C      0.12183     -2.37814      -1.80668
 C     -0.45801     -3.61794      -1.80556
 C     -1.21562     -4.00847      -0.70761
 C     -1.40130     -3.17367       0.39528
 C     -0.82630     -1.93558       0.40917
 C      1.87154      2.52487       1.51061
 H      1.15940     -0.04788      -1.63683
 H      0.13903      0.50125       1.21282
 H      0.71425     -2.04298      -2.64700
 H     -0.33285     -4.28553      -2.64499
 H     -1.67567     -4.98787      -0.70675
 H     -1.99760     -3.51009       1.23037
 H     -0.96894     -1.28416       1.25805
 H      0.93841      3.06315       1.66554
 H      2.04073      1.90262       2.39045
 H      2.69688      3.21875       1.38941
Br     -3.49063     -1.19887      -2.80430
