25
Coordinates from ORCA-job orca_input E -10758.740226899396
  Br          1.28632273836492     -1.25733256852704      0.19719758961669
  C          -0.16674052121251      0.73267842122605      0.45573931762674
  C           0.93804703080262      0.72548187047402     -0.48098170613567
  C           2.11671765769625      1.56574965574515     -0.21903092981906
  O           2.36447923172410      1.73763150847474      1.10368221720760
  C          -1.52865457730124      0.51878334642024      0.15198583902461
  C          -2.00074329704940      0.27792539666573     -1.16261682130775
  C          -3.35038326501582      0.10437728435766     -1.38261247043307
  C          -4.25008718232551      0.16576291406444     -0.31103272744496
  C          -3.80217375220242      0.40109399621738      0.99048370031224
  C          -2.45248206918407      0.57255080098299      1.22631870351468
  C           2.80995227054490      2.09755600690978     -1.23344534370982
  H           0.08669974946764      0.98608872776136      1.48349085362934
  H           0.71005859029372      0.61462276071403     -1.53648141060080
  H          -1.31049112603029      0.22543178118816     -1.99770221030171
  H          -3.71755666021298     -0.07932831793286     -2.38710169436181
  H          -5.31141123258217      0.02750106633781     -0.49676652139879
  H          -4.51049763772245      0.44519720403711      1.81119768231868
  H          -2.08437718656964      0.75109338372101      2.23273816733587
  H           2.52783957175230      1.87931696598532     -2.25604190541690
  H           3.16020014571272      2.27498851493494      1.22511552610411
  H           3.65713025366546      2.75241196988454     -1.05420474781179
  Br          0.02815671227805     -4.61333384977732      1.99496200408449
  Br          2.28216675159669     -4.19180387248859      0.74878056416902
  Br          4.51429780350916     -3.72041496737665     -0.50139367620194
