25
Coordinates from ORCA-job orca_input E -10758.619864068400
  Br      1.567740     -1.434320      0.059630
  C      -0.132460      0.540800      0.489800
  C       1.011600      0.402680     -0.421760
  C       2.111940      1.374840     -0.173890
  O       2.449230      1.451910      1.130280
  C      -1.465390      0.404040      0.176880
  C      -1.932420      0.128360     -1.135240
  C      -3.272840      0.020300     -1.366000
  C      -4.170690      0.183320     -0.309530
  C      -3.742240      0.452790      0.985510
  C      -2.401300      0.560530      1.233060
  C       2.647140      2.071940     -1.165060
  H       0.126430      0.764930      1.518830
  H       0.754700      0.371210     -1.470990
  H      -1.235010      0.000560     -1.949020
  H      -3.642690     -0.189160     -2.358720
  H      -5.231270      0.096630     -0.506060
  H      -4.461540      0.573060      1.781790
  H      -2.035960      0.766610      2.230000
  H       2.299110      1.930030     -2.176650
  H       3.161960      2.084970      1.263030
  H       3.437170      2.787900     -0.981870
  Br     -0.225970     -3.568290      1.693800
  Br      2.032200     -3.413100      0.610360
  Br      4.347030     -3.368510     -0.555900
25
Coordinates from ORCA-job orca_input E -10758.672271317335
  Br      1.563664     -1.465721      0.084595
  C      -0.134997      0.584980      0.477439
  C       0.991021      0.439914     -0.418636
  C       2.103690      1.401903     -0.174501
  O       2.442086      1.480064      1.134400
  C      -1.484231      0.439909      0.165541
  C      -1.956338      0.152102     -1.143093
  C      -3.304531      0.036750     -1.372606
  C      -4.206340      0.204920     -0.317221
  C      -3.771062      0.486432      0.975898
  C      -2.422312      0.600399      1.220899
  C       2.656454      2.095436     -1.169165
  H       0.125590      0.814213      1.507428
  H       0.730371      0.403265     -1.470850
  H      -1.258074      0.020123     -1.959264
  H      -3.674647     -0.182426     -2.366339
  H      -5.269536      0.113130     -0.511688
  H      -4.489905      0.611205      1.775905
  H      -2.055349      0.815566      2.218243
  H       2.312000      1.956916     -2.184508
  H       3.165053      2.107230      1.261875
  H       3.456120      2.803548     -0.982444
  Br     -0.093420     -3.900673      1.783583
  Br      2.129740     -3.559150      0.626805
  Br      4.441423     -3.466005     -0.560016
25
Coordinates from ORCA-job orca_input E -10758.703211328175
  Br      1.526744     -1.473445      0.116049
  C      -0.139757      0.628260      0.466066
  C       0.968304      0.488966     -0.417963
  C       2.105629      1.422802     -0.177614
  O       2.444853      1.500294      1.135774
  C      -1.502712      0.468762      0.156239
  C      -1.976227      0.174540     -1.149017
  C      -3.329196      0.045921     -1.376589
  C      -4.234673      0.207727     -0.321178
  C      -3.793270      0.496082      0.970625
  C      -2.439670      0.622358      1.212077
  C       2.684115      2.100870     -1.173805
  H       0.116168      0.859079      1.499140
  H       0.709601      0.441964     -1.472713
  H      -1.277767      0.047224     -1.968327
  H      -3.697430     -0.178958     -2.371658
  H      -5.298817      0.106138     -0.513015
  H      -4.509995      0.616758      1.775523
  H      -2.071997      0.842772      2.209855
  H       2.342148      1.967775     -2.192170
  H       3.184835      2.111505      1.254037
  H       3.500914      2.790218     -0.983921
  Br     -0.004964     -4.115287      1.847549
  Br      2.197686     -3.686433      0.647291
  Br      4.491949     -3.491861     -0.569975
25
Coordinates from ORCA-job orca_input E -10758.723283085350
  Br      1.435389     -1.440604      0.141851
  C      -0.151758      0.702941      0.452251
  C       0.945279      0.586545     -0.433536
  C       2.127501      1.453706     -0.186850
  O       2.452260      1.529100      1.133697
  C      -1.522078      0.503704      0.149842
  C      -1.992523      0.196893     -1.150996
  C      -3.345054      0.029873     -1.371862
  C      -4.252492      0.166532     -0.313598
  C      -3.807710      0.468278      0.975360
  C      -2.454482      0.631781      1.209669
  C       2.757560      2.090565     -1.180188
  H       0.092546      0.938277      1.488493
  H       0.702492      0.521004     -1.492089
  H      -1.295755      0.088723     -1.975705
  H      -3.708688     -0.206086     -2.366961
  H      -5.314795      0.035348     -0.499519
  H      -4.520666      0.570031      1.787250
  H      -2.088767      0.862037      2.206740
  H       2.426244      1.963422     -2.203605
  H       3.222353      2.103926      1.246979
  H       3.603984      2.741308     -0.982172
  Br      0.009217     -4.272641      1.898738
  Br      2.201386     -3.799623      0.648335
  Br      4.475027     -3.471012     -0.579843
25
Coordinates from ORCA-job orca_input E -10758.732990268387
  Br      1.333085     -1.376888      0.171607
  C      -0.159021      0.773908      0.444191
  C       0.933488      0.693422     -0.455002
  C       2.148056      1.494178     -0.196806
  O       2.444346      1.587196      1.130078
  C      -1.527708      0.531482      0.149073
  C      -1.993392      0.215620     -1.149911
  C      -3.340934      0.004223     -1.363432
  C      -4.247209      0.106439     -0.300361
  C      -3.803450      0.418652      0.986575
  C      -2.455182      0.626137      1.214529
  C       2.831072      2.073723     -1.190284
  H       0.075327      1.022496      1.479130
  H       0.709204      0.602003     -1.514921
  H      -1.299590      0.133207     -1.980121
  H      -3.699737     -0.240493     -2.358312
  H      -5.305523     -0.059650     -0.480351
  H      -4.512788      0.493967      1.804622
  H      -2.093586      0.863469      2.211448
  H       2.518376      1.933818     -2.217988
  H       3.239086      2.127638      1.243902
  H       3.700716      2.691461     -0.987796
  Br     -0.058610     -4.378743      1.892260
  Br      2.171007     -3.873455      0.682183
  Br      4.389438     -3.469779     -0.612034
25
Coordinates from ORCA-job orca_input E -10758.735360452993
  Br      1.232826     -1.331297      0.149465
  C      -0.163452      0.787289      0.431189
  C       0.918126      0.772332     -0.495344
  C       2.150565      1.516476     -0.216419
  O       2.424346      1.616284      1.113625
  C      -1.532133      0.537629      0.141418
  C      -2.006929      0.268798     -1.164358
  C      -3.353156      0.047376     -1.371396
  C      -4.248314      0.093546     -0.295519
  C      -3.794280      0.360468      0.997417
  C      -2.447207      0.578184      1.219806
  C       2.872699      2.053013     -1.207656
  H       0.074955      1.025468      1.466541
  H       0.700875      0.672209     -1.554536
  H      -1.322940      0.229521     -2.005560
  H      -3.718492     -0.161850     -2.371889
  H      -5.306122     -0.080383     -0.470303
  H      -4.494366      0.393476      1.826051
  H      -2.079894      0.780385      2.222192
  H       2.573532      1.904750     -2.238098
  H       3.238179      2.125633      1.236230
  H       3.759480      2.643997     -1.000583
  Br      0.012894     -4.416653      2.071841
  Br      2.092326     -3.999206      0.563626
  Br      4.412954     -3.423414     -0.445461
25
Coordinates from ORCA-job orca_input E -10758.738887330999
  Br      1.166850     -1.262557      0.229921
  C      -0.162121      0.795913      0.438823
  C       0.915795      0.836094     -0.504791
  C       2.148765      1.556683     -0.223397
  O       2.396766      1.712768      1.103721
  C      -1.527795      0.539074      0.145447
  C      -2.002015      0.295063     -1.165222
  C      -3.346007      0.066465     -1.374697
  C      -4.238586      0.080090     -0.296435
  C      -3.785246      0.323011      1.000533
  C      -2.440387      0.549100      1.225908
  C       2.901154      2.027577     -1.228106
  H       0.074454      1.051749      1.469220
  H       0.710370      0.692790     -1.559910
  H      -1.320547      0.280731     -2.009046
  H      -3.710915     -0.123108     -2.379137
  H      -5.295062     -0.100025     -0.472890
  H      -4.483757      0.332021      1.830983
  H      -2.074957      0.733396      2.232257
  H       2.618388      1.829767     -2.254698
  H       3.220655      2.206336      1.224111
  H       3.794685      2.613269     -1.036098
  Br     -0.073125     -4.565960      1.994019
  Br      2.181598     -4.017080      0.780801
  Br      4.327509     -3.459139     -0.569038
25
Coordinates from ORCA-job orca_input E -10758.739380642119
  Br      1.202029     -1.291648      0.236792
  C      -0.163251      0.733929      0.441176
  C       0.912830      0.794595     -0.505043
  C       2.131839      1.543035     -0.225776
  O       2.369234      1.723999      1.098995
  C      -1.537152      0.520091      0.141739
  C      -2.018722      0.318748     -1.172744
  C      -3.369266      0.131663     -1.386655
  C      -4.260646      0.143304     -0.307746
  C      -3.800143      0.343875      0.993800
  C      -2.448859      0.529290      1.222178
  C       2.881780      2.012231     -1.234560
  H       0.079399      0.987473      1.471122
  H       0.704506      0.646634     -1.559502
  H      -1.337936      0.305757     -2.017311
  H      -3.740124     -0.023732     -2.394828
  H      -5.321653     -0.004819     -0.487219
  H      -4.497943      0.351969      1.824946
  H      -2.077201      0.680699      2.231843
  H       2.607962      1.793355     -2.259364
  H       3.185675      2.229890      1.219144
  H       3.763586      2.617260     -1.047578
  Br      0.050255     -4.605335      2.063219
  Br      2.258714     -4.044047      0.779078
  Br      4.421558     -3.444186     -0.523426
25
Coordinates from ORCA-job orca_input E -10758.739573503732
  Br      1.189816     -1.278303      0.231871
  C      -0.158005      0.725581      0.438901
  C       0.916220      0.801519     -0.510202
  C       2.130953      1.557099     -0.228071
  O       2.357823      1.753316      1.094792
  C      -1.533421      0.512794      0.140131
  C      -2.018234      0.319532     -1.173670
  C      -3.370478      0.138890     -1.386254
  C      -4.258923      0.143832     -0.305283
  C      -3.794708      0.332039      0.996838
  C      -2.441980      0.511860      1.222781
  C       2.887053      2.015517     -1.238365
  H       0.091126      0.976671      1.467862
  H       0.702724      0.655626     -1.564014
  H      -1.339171      0.311033     -2.019806
  H      -3.744841     -0.006577     -2.394575
  H      -5.320690     -0.000634     -0.483355
  H      -4.490594      0.334421      1.829608
  H      -2.066363      0.654220      2.232349
  H       2.619803      1.783378     -2.261991
  H       3.176066      2.255160      1.219169
  H       3.766775      2.624354     -1.053719
  Br      0.037305     -4.601433      2.070625
  Br      2.236617     -4.059075      0.771764
  Br      4.421597     -3.466792     -0.495107
25
Coordinates from ORCA-job orca_input E -10758.739711909549
  Br      1.180532     -1.262966      0.227921
  C      -0.151777      0.713121      0.440082
  C       0.922091      0.805634     -0.512893
  C       2.129153      1.572831     -0.230036
  O       2.346133      1.783046      1.090532
  C      -1.529427      0.503527      0.140600
  C      -2.015663      0.316246     -1.172344
  C      -3.369320      0.141092     -1.384489
  C      -4.256280      0.144634     -0.302859
  C      -3.790042      0.325973      0.999498
  C      -2.436144      0.500586      1.223895
  C       2.887965      2.023035     -1.242718
  H       0.102300      0.969796      1.466377
  H       0.703337      0.663135     -1.566074
  H      -1.337142      0.307585     -2.019055
  H      -3.745820      0.001116     -2.392748
  H      -5.318728      0.004582     -0.480428
  H      -4.485164      0.326841      1.832867
  H      -2.057496      0.637885      2.233062
  H       2.625941      1.777080     -2.264433
  H       3.166534      2.280000      1.219790
  H       3.764006      2.638274     -1.061909
  Br      0.015506     -4.603379      2.056895
  Br      2.222283     -4.075332      0.776046
  Br      4.423692     -3.500309     -0.475298
25
Coordinates from ORCA-job orca_input E -10758.739780964703
  Br      1.179046     -1.253848      0.224157
  C      -0.147933      0.709433      0.442132
  C       0.927102      0.804963     -0.512578
  C       2.129385      1.580294     -0.231159
  O       2.344921      1.791504      1.089089
  C      -1.526474      0.499145      0.142149
  C      -2.011622      0.310163     -1.170254
  C      -3.365464      0.135267     -1.382565
  C      -4.252761      0.141712     -0.301452
  C      -3.786899      0.324918      1.000777
  C      -2.432871      0.498707      1.225203
  C       2.884278      2.033716     -1.244980
  H       0.107415      0.968564      1.467458
  H       0.705562      0.667192     -1.565784
  H      -1.332707      0.298813     -2.016625
  H      -3.741752     -0.006584     -2.390632
  H      -5.315244      0.002337     -0.479231
  H      -4.482432      0.327780      1.833770
  H      -2.053771      0.637568      2.233970
  H       2.622032      1.785214     -2.265981
  H       3.166464      2.286015      1.220359
  H       3.756982      2.654105     -1.065878
  Br     -0.009532     -4.594244      2.039345
  Br      2.210439     -4.083177      0.780255
  Br      4.422305     -3.525528     -0.469262
25
Coordinates from ORCA-job orca_input E -10758.739859703890
  Br      1.186748     -1.247735      0.218835
  C      -0.144902      0.706951      0.446168
  C       0.932964      0.796372     -0.509217
  C       2.129858      1.583360     -0.231772
  O       2.349902      1.788053      1.089202
  C      -1.523642      0.495680      0.145134
  C      -2.005664      0.300822     -1.167173
  C      -3.359227      0.125626     -1.380744
  C      -4.248491      0.139471     -0.301358
  C      -3.784933      0.329370      1.000760
  C      -2.431182      0.502473      1.226974
  C       2.873126      2.050601     -1.246728
  H       0.109861      0.967169      1.471327
  H       0.708593      0.666589     -1.562846
  H      -1.325339      0.283627     -2.012237
  H      -3.733636     -0.022079     -2.388669
  H      -5.310792      0.000531     -0.480383
  H      -4.482149      0.337847      1.832278
  H      -2.053379      0.646293      2.235474
  H       2.607207      1.805157     -2.267486
  H       3.171580      2.282446      1.220188
  H       3.740028      2.679361     -1.068924
  Br     -0.035925     -4.575001      2.017895
  Br      2.201119     -4.092016      0.782912
  Br      4.424746     -3.556940     -0.467332
25
Coordinates from ORCA-job orca_input E -10758.739941787573
  Br      1.203684     -1.245902      0.213405
  C      -0.144428      0.707315      0.450570
  C       0.937644      0.780729     -0.503495
  C       2.129930      1.580619     -0.231463
  O       2.359772      1.773130      1.090784
  C      -1.521766      0.494775      0.148358
  C      -1.999891      0.291963     -1.164563
  C      -3.352758      0.116549     -1.380146
  C      -4.244917      0.139613     -0.303048
  C      -3.784923      0.338200      0.999112
  C      -2.431811      0.510598      1.228451
  C       2.856432      2.069027     -1.246942
  H       0.108301      0.965254      1.476809
  H       0.711075      0.660150     -1.557780
  H      -1.317670      0.267959     -2.007760
  H      -3.724338     -0.038495     -2.388017
  H      -5.306902      0.000914     -0.484002
  H      -4.484606      0.353839      1.828428
  H      -2.056768      0.660664      2.236983
  H       2.584668      1.831287     -2.267976
  H       3.180015      2.270774      1.218615
  H       3.716341      2.707349     -1.069438
  Br     -0.051548     -4.550975      2.003040
  Br      2.199155     -4.101818      0.782247
  Br      4.431780     -3.589488     -0.469892
25
Coordinates from ORCA-job orca_input E -10758.740029566470
  Br      1.229796     -1.247577      0.206775
  C      -0.147222      0.711441      0.454246
  C       0.941014      0.758861     -0.495923
  C       2.129256      1.573153     -0.229589
  O       2.372567      1.749201      1.093913
  C      -1.520851      0.497158      0.151137
  C      -1.995248      0.282824     -1.162708
  C      -3.347069      0.107252     -1.380396
  C      -4.242527      0.142405     -0.305781
  C      -3.786937      0.352871      0.996203
  C      -2.434807      0.524807      1.229120
  C       2.835385      2.088527     -1.244303
  H       0.102422      0.966077      1.482124
  H       0.712888      0.648158     -1.551097
  H      -1.310854      0.250040     -2.003639
  H      -3.715525     -0.057411     -2.387867
  H      -5.304135      0.003631     -0.488795
  H      -4.489585      0.377935      1.822752
  H      -2.063539      0.683504      2.237639
  H       2.556457      1.862817     -2.266148
  H       3.188962      2.254392      1.216672
  H       3.687605      2.736719     -1.065547
  Br     -0.053611     -4.529023      1.993423
  Br      2.206762     -4.116543      0.776251
  Br      4.445266     -3.627192     -0.476182
25
Coordinates from ORCA-job orca_input E -10758.740105784947
  Br      1.254560     -1.251790      0.201776
  C      -0.152764      0.717085      0.454665
  C       0.941457      0.740298     -0.490525
  C       2.126959      1.565264     -0.226924
  O       2.378773      1.730310      1.097111
  C      -1.521862      0.502410      0.151551
  C      -1.995218      0.278938     -1.162998
  C      -3.346211      0.104140     -1.381529
  C      -4.243413      0.148635     -0.308026
  C      -3.790571      0.367893      0.993672
  C      -2.439254      0.539311      1.228333
  C       2.820245      2.099244     -1.239909
  H       0.095135      0.969175      1.483735
  H       0.713305      0.634571     -1.546368
  H      -1.309495      0.239342     -2.002430
  H      -3.713341     -0.067327     -2.388293
  H      -5.304914      0.010071     -0.491985
  H      -4.495044      0.400114      1.818372
  H      -2.070427      0.704560      2.236670
  H       2.537433      1.883077     -2.262774
  H       3.189357      2.245524      1.216436
  H       3.667879      2.752856     -1.058880
  Br     -0.036221     -4.527562      1.994334
  Br      2.226076     -4.134294      0.768747
  Br      4.464026     -3.657813     -0.482481
25
Coordinates from ORCA-job orca_input E -10758.740178651926
  Br      1.278207     -1.257158      0.197868
  C      -0.160782      0.724246      0.453699
  C       0.939781      0.725412     -0.485862
  C       2.122581      1.559363     -0.222854
  O       2.377164      1.720477      1.101067
  C      -1.524784      0.510403      0.150827
  C      -1.998536      0.278322     -1.164170
  C      -3.348781      0.105060     -1.383155
  C      -4.247037      0.158100     -0.310191
  C      -3.796356      0.385026      0.991296
  C      -2.445858      0.555979      1.226603
  C       2.810441      2.102530     -1.234446
  H       0.087346      0.976298      1.482935
  H       0.712262      0.620067     -1.542064
  H      -1.311353      0.232311     -2.002093
  H      -3.715725     -0.071988     -2.388948
  H      -5.308559      0.020056     -0.494712
  H      -4.502300      0.423543      1.814400
  H      -2.078529      0.727403      2.234486
  H       2.526870      1.891805     -2.258248
  H       3.179634      2.248464      1.219124
  H       3.656284      2.758036     -1.051485
  Br     -0.001008     -4.550775      2.002854
  Br      2.256611     -4.159435      0.758103
  Br      4.488899     -3.689514     -0.492753
25
Coordinates from ORCA-job orca_input E -10758.740212524974
  Br      1.287009     -1.258937      0.197237
  C      -0.165504      0.728458      0.453612
  C       0.938217      0.722360     -0.483525
  C       2.118905      1.560228     -0.220076
  O       2.370456      1.725528      1.103255
  C      -1.527387      0.515684      0.150501
  C      -2.001398      0.279648     -1.164532
  C      -3.351304      0.107345     -1.383989
  C      -4.250048      0.164284     -0.311354
  C      -3.800529      0.394510      0.990267
  C      -2.450472      0.565284      1.225603
  C       2.809287      2.099693     -1.232295
  H       0.085004      0.981839      1.482066
  H       0.710841      0.613901     -1.539474
  H      -1.312883      0.230502     -2.001267
  H      -3.718598     -0.072005     -2.389209
  H      -5.311579      0.026652     -0.496345
  H      -4.507376      0.435635      1.812420
  H      -2.083161      0.739771      2.233020
  H       2.527056      1.887105     -2.256071
  H       3.168077      2.260528      1.222598
  H       3.656035      2.754271     -1.049948
  Br      0.024456     -4.581632      2.008815
  Br      2.276799     -4.177852      0.751853
  Br      4.504564     -3.708770     -0.500882
25
Coordinates from ORCA-job orca_input E -10758.740223627003
  Br      1.287695     -1.257864      0.197290
  C      -0.166798      0.731146      0.454486
  C       0.938012      0.724001     -0.482111
  C       2.117205      1.563623     -0.218975
  O       2.365919      1.733303      1.103878
  C      -1.528388      0.518042      0.151000
  C      -2.001720      0.279531     -1.163828
  C      -3.351436      0.106744     -1.383659
  C      -4.250633      0.165738     -0.311492
  C      -3.801974      0.398364      0.990190
  C      -2.452173      0.569598      1.225639
  C       2.809972      2.098008     -1.232430
  H       0.085878      0.984844      1.482363
  H       0.710249      0.613576     -1.537725
  H      -1.312154      0.228705     -1.999629
  H      -3.718788     -0.074547     -2.388506
  H      -5.312061      0.027786     -0.496895
  H      -4.509547      0.440761      1.811634
  H      -2.084472      0.746205      2.232568
  H       2.528291      1.882141     -2.255655
  H       3.161856      2.270481      1.224694
  H       3.657318      2.752273     -1.051721
  Br      0.030827     -4.601362      2.005597
  Br      2.282633     -4.187610      0.749493
  Br      4.510759     -3.719457     -0.503924
25
Coordinates from ORCA-job orca_input E -10758.740226135305
  Br      1.286713     -1.257155      0.197248
  C      -0.166801      0.732423      0.455321
  C       0.938123      0.725301     -0.481309
  C       2.116827      1.565458     -0.218851
  O       2.364581      1.736982      1.103858
  C      -1.528564      0.518686      0.151626
  C      -2.001080      0.278583     -1.163037
  C      -3.350711      0.105132     -1.383020
  C      -4.250257      0.165536     -0.311244
  C      -3.802133      0.399966      0.990358
  C      -2.452440      0.571547      1.226027
  C       2.810188      2.097666     -1.233013
  H       0.086606      0.985982      1.483046
  H       0.710140      0.614449     -1.536809
  H      -1.310989      0.226741     -1.998321
  H      -3.717932     -0.077744     -2.387636
  H      -5.311596      0.027238     -0.496886
  H      -4.510194      0.443332      1.811331
  H      -2.084491      0.749510      2.232619
  H       2.528350      1.880023     -2.255809
  H       3.160276      2.274386      1.225253
  H       3.657502      2.752246     -1.053355
  Br      0.029270     -4.609443      1.999489
  Br      2.282416     -4.190872      0.748842
  Br      4.512665     -3.721944     -0.503449
25
Coordinates from ORCA-job orca_input E -10758.740226899396
  Br      1.286323     -1.257333      0.197198
  C      -0.166741      0.732678      0.455739
  C       0.938047      0.725482     -0.480982
  C       2.116718      1.565750     -0.219031
  O       2.364479      1.737632      1.103682
  C      -1.528655      0.518783      0.151986
  C      -2.000743      0.277925     -1.162617
  C      -3.350383      0.104377     -1.382612
  C      -4.250087      0.165763     -0.311033
  C      -3.802174      0.401094      0.990484
  C      -2.452482      0.572551      1.226319
  C       2.809952      2.097556     -1.233445
  H       0.086700      0.986089      1.483491
  H       0.710059      0.614623     -1.536481
  H      -1.310491      0.225432     -1.997702
  H      -3.717557     -0.079328     -2.387102
  H      -5.311411      0.027501     -0.496767
  H      -4.510498      0.445197      1.811198
  H      -2.084377      0.751093      2.232738
  H       2.527840      1.879317     -2.256042
  H       3.160200      2.274989      1.225116
  H       3.657130      2.752412     -1.054205
  Br      0.028157     -4.613334      1.994962
  Br      2.282167     -4.191804      0.748781
  Br      4.514298     -3.720415     -0.501394
