25
Coordinates from ORCA-job orca_input_MEP E -132.599417101329
  Br     -0.877344      1.930483     -0.570220
  C       0.570322     -0.280842     -0.756068
  C       0.507270      0.786698      0.235182
  C       1.777753      1.630345      0.327491
  O       2.626558      1.529135     -0.520782
  C      -0.047575     -1.511587     -0.697667
  C       0.121826     -2.378136     -1.806681
  C      -0.458006     -3.617937     -1.805561
  C      -1.215619     -4.008466     -0.707609
  C      -1.401304     -3.173670      0.395277
  C      -0.826299     -1.935578      0.409172
  C       1.871544      2.524874      1.510606
  H       1.159400     -0.047882     -1.636834
  H       0.139034      0.501248      1.212823
  H       0.714249     -2.042982     -2.647002
  H      -0.332847     -4.285533     -2.644992
  H      -1.675671     -4.987869     -0.706750
  H      -1.997597     -3.510091      1.230370
  H      -0.968939     -1.284156      1.258054
  H       0.938414      3.063154      1.665540
  H       2.040728      1.902620      2.390454
  H       2.696882      3.218751      1.389410
  Br     -3.060514      4.366163     -1.232589
  Br     -1.762217      5.368890      0.883346
  Br     -0.540047      6.242368      2.825031
25
Coordinates from ORCA-job orca_input_MEP E -132.598011174514
  Br     -0.642872      2.169989     -0.530461
  C       0.526128     -0.173848     -0.803537
  C       0.604557      0.856433      0.224865
  C       1.989705      1.489292      0.341423
  O       2.792984      1.341571     -0.543297
  C      -0.130469     -1.381093     -0.725645
  C      -0.018157     -2.245928     -1.842529
  C      -0.555801     -3.503081     -1.793815
  C      -1.226648     -3.905462     -0.644676
  C      -1.373330     -3.063590      0.459050
  C      -0.832422     -1.811020      0.428902
  C       2.248445      2.226793      1.603584
  H       1.056614      0.060238     -1.720202
  H       0.206632      0.585373      1.194434
  H       0.511675     -1.899682     -2.719391
  H      -0.458655     -4.176357     -2.632537
  H      -1.648537     -4.901201     -0.603897
  H      -1.907143     -3.409375      1.331391
  H      -0.942029     -1.154982      1.278628
  H       1.422486      2.897307      1.831922
  H       2.308553      1.496460      2.411352
  H       3.182151      2.773825      1.532716
  Br     -3.201521      4.028865     -1.511405
  Br     -2.362617      5.288944      0.707159
  Br     -1.549728      6.410528      2.725966
25
Coordinates from ORCA-job orca_input_MEP E -132.596040346317
  Br     -0.432416      2.378672     -0.482209
  C       0.486406     -0.095500     -0.826926
  C       0.649463      0.913184      0.218422
  C       2.098284      1.383722      0.352458
  O       2.879085      1.183123     -0.541505
  C      -0.174302     -1.295265     -0.731097
  C      -0.086447     -2.160837     -1.852081
  C      -0.594766     -3.428137     -1.781530
  C      -1.220627     -3.838248     -0.609324
  C      -1.349904     -2.995202      0.496511
  C      -0.832257     -1.734444      0.447537
  C       2.433830      2.038306      1.641413
  H       0.972134      0.144220     -1.766478
  H       0.225602      0.659108      1.181630
  H       0.409827     -1.807334     -2.745635
  H      -0.509016     -4.103997     -2.619646
  H      -1.621373     -4.842215     -0.552279
  H      -1.851107     -3.349059      1.384495
  H      -0.927540     -1.077342      1.297697
  H       1.677327      2.773953      1.905517
  H       2.426141      1.269631      2.414847
  H       3.415708      2.494346      1.584718
  Br     -3.318439      3.846854     -1.611514
  Br     -2.686236      5.192493      0.577683
  Br     -2.069378      6.449968      2.617298
25
Coordinates from ORCA-job orca_input_MEP E -132.594770979729
  Br     -0.232921      2.551531     -0.427787
  C       0.460655     -0.028340     -0.843569
  C       0.686042      0.957744      0.215794
  C       2.172198      1.293945      0.365814
  O       2.936309      1.041769     -0.527623
  C      -0.199035     -1.225010     -0.735949
  C      -0.136112     -2.092347     -1.860073
  C      -0.626195     -3.365014     -1.773616
  C      -1.215508     -3.780785     -0.584559
  C      -1.328133     -2.937201      0.523139
  C      -0.824447     -1.671310      0.460297
  C       2.559584      1.892699      1.668438
  H       0.913946      0.215727     -1.797262
  H       0.239040      0.717862      1.171834
  H       0.331664     -1.734786     -2.766787
  H      -0.554774     -4.041891     -2.611490
  H      -1.601254     -4.789293     -0.514359
  H      -1.805161     -3.294497      1.423673
  H      -0.906593     -1.013402      1.312248
  H       1.860377      2.673599      1.959378
  H       2.504943      1.106181      2.422610
  H       3.571845      2.279018      1.614593
  Br     -3.448128      3.688084     -1.664643
  Br     -2.928740      5.097471      0.462848
  Br     -2.429603      6.458244      2.507049
25
Coordinates from ORCA-job orca_input_MEP E -132.593682133619
  Br     -0.082222      2.676373     -0.400299
  C       0.427284      0.031710     -0.855593
  C       0.696521      1.002751      0.208402
  C       2.200553      1.231955      0.369998
  O       2.947561      0.937084     -0.524173
  C      -0.219521     -1.169942     -0.734982
  C      -0.164687     -2.038715     -1.859529
  C      -0.636533     -3.317568     -1.764686
  C      -1.205672     -3.738817     -0.567710
  C      -1.311059     -2.895215      0.540878
  C      -0.820600     -1.624659      0.471148
  C       2.623910      1.789342      1.678976
  H       0.847830      0.282205     -1.821951
  H       0.228412      0.783153      1.158357
  H       0.285661     -1.678704     -2.773744
  H      -0.568458     -3.995816     -2.601940
  H      -1.581331     -4.751075     -0.491795
  H      -1.772994     -3.257175      1.447502
  H      -0.898015     -0.967659      1.323960
  H       1.967318      2.597830      1.989569
  H       2.538655      0.993379      2.419821
  H       3.652779      2.126826      1.623265
  Br     -3.455144      3.510466     -1.662179
  Br     -3.042444      5.005270      0.407750
  Br     -2.657804      6.467000      2.418955
25
Coordinates from ORCA-job orca_input_MEP E -132.593154667008
  Br      0.037267      2.773522     -0.379863
  C       0.397432      0.081637     -0.864581
  C       0.701366      1.040734      0.203413
  C       2.219562      1.182827      0.369905
  O       2.951953      0.857958     -0.526999
  C      -0.236338     -1.125484     -0.733957
  C      -0.187932     -1.994558     -1.859428
  C      -0.644590     -3.278076     -1.757190
  C      -1.196756     -3.702800     -0.553286
  C      -1.296524     -2.859955      0.556644
  C      -0.816996     -1.585720      0.481035
  C       2.670834      1.704504      1.684507
  H       0.792643      0.338891     -1.840124
  H       0.220914      0.834313      1.151427
  H       0.248705     -1.630233     -2.778734
  H      -0.578800     -3.956180     -2.594621
  H      -1.564025     -4.717661     -0.473296
  H      -1.746401     -3.225248      1.468105
  H      -0.890000     -0.928703      1.334525
  H       2.047513      2.533665      2.010204
  H       2.557911      0.900486      2.412993
  H       3.712592      2.001759      1.627113
  Br     -3.429667      3.350573     -1.652980
  Br     -3.121868      4.927037      0.368618
  Br     -2.848795      6.476713      2.346572
25
Coordinates from ORCA-job orca_input_MEP E -132.592455636277
  Br      0.135385      2.839660     -0.361774
  C       0.375145      0.123211     -0.870245
  C       0.709285      1.070271      0.199714
  C       2.231888      1.144779      0.367725
  O       2.948716      0.797264     -0.532289
  C      -0.250361     -1.087294     -0.731963
  C      -0.207694     -1.956384     -1.857918
  C      -0.651593     -3.244026     -1.750500
  C      -1.189615     -3.672684     -0.541843
  C      -1.284393     -2.830125      0.568831
  C      -0.813813     -1.552858      0.489029
  C       2.704983      1.635408      1.686472
  H       0.747226      0.385975     -1.853170
  H       0.220536      0.878346      1.146293
  H       0.216882     -1.590238     -2.781909
  H      -0.588054     -3.922464     -2.587910
  H      -1.549768     -4.690064     -0.458359
  H      -1.723880     -3.198416      1.484076
  H      -0.883662     -0.896583      1.343386
  H       2.111694      2.480082      2.026252
  H       2.569798      0.825817      2.404776
  H       3.755636      1.897532      1.626991
  Br     -3.389299      3.221059     -1.633765
  Br     -3.181280      4.864075      0.342595
  Br     -3.013763      6.477656      2.275506
25
Coordinates from ORCA-job orca_input_MEP E -132.592291844865
  Br      0.211341      2.890750     -0.348308
  C       0.356969      0.157032     -0.873714
  C       0.715441      1.094341      0.197929
  C       2.241734      1.114797      0.364878
  O       2.945918      0.750846     -0.539287
  C      -0.262037     -1.056444     -0.730031
  C      -0.224467     -1.924788     -1.856802
  C      -0.657967     -3.215698     -1.745266
  C      -1.184023     -3.647362     -0.532349
  C      -1.274921     -2.805439      0.579308
  C      -0.811683     -1.525735      0.496048
  C       2.732827      1.578149      1.686722
  H       0.711784      0.424512     -1.861852
  H       0.221830      0.911374      1.144414
  H       0.190371     -1.555940     -2.784175
  H      -0.596018     -3.893868     -2.582930
  H      -1.538036     -4.666640     -0.446342
  H      -1.705826     -3.176205      1.497679
  H      -0.878402     -0.869801      1.351041
  H       2.164271      2.435281      2.037609
  H       2.577426      0.764465      2.396295
  H       3.790224      1.811738      1.625710
  Br     -3.344328      3.112211     -1.615222
  Br     -3.227528      4.812363      0.322305
  Br     -3.154901      6.480062      2.216340
25
Coordinates from ORCA-job orca_input_MEP E -132.592186065764
  Br      0.280020      2.932915     -0.334211
  C       0.341054      0.188943     -0.876067
  C       0.722603      1.115968      0.196759
  C       2.249404      1.088336      0.362394
  O       2.941524      0.710624     -0.548715
  C      -0.272851     -1.026856     -0.727717
  C      -0.240252     -1.894545     -1.855170
  C      -0.664137     -3.188430     -1.740015
  C      -1.178981     -3.623147     -0.523519
  C      -1.266130     -2.781851      0.588877
  C      -0.809569     -1.499811      0.502727
  C       2.757928      1.524049      1.685804
  H       0.679488      0.460876     -1.868830
  H       0.225395      0.942044      1.143365
  H       0.165334     -1.523566     -2.785753
  H      -0.603918     -3.866414     -2.578059
  H      -1.527231     -4.644333     -0.435212
  H      -1.689053     -3.154877      1.510082
  H      -0.873592     -0.844565      1.358410
  H       2.213956      2.392352      2.048054
  H       2.583396      0.707101      2.387105
  H       3.821035      1.729668      1.622959
  Br     -3.295364      3.011842     -1.592932
  Br     -3.269726      4.764798      0.304229
  Br     -3.290332      6.478876      2.155431
25
Coordinates from ORCA-job orca_input_MEP E -132.591987828966
  Br      0.346925      2.971422     -0.318326
  C       0.325826      0.220511     -0.877807
  C       0.730167      1.136674      0.196244
  C       2.256462      1.062532      0.358348
  O       2.934916      0.673605     -0.558598
  C      -0.283419     -0.997282     -0.725140
  C      -0.255920     -1.864279     -1.853311
  C      -0.670250     -3.161066     -1.734746
  C      -1.173964     -3.598921     -0.514862
  C      -1.257369     -2.758062      0.598344
  C      -0.807382     -1.473937      0.509318
  C       2.781445      1.470322      1.683846
  H       0.647662      0.497501     -1.874662
  H       0.230472      0.970942      1.143223
  H       0.140482     -1.491350     -2.786948
  H      -0.611783     -3.838851     -2.573151
  H      -1.516448     -4.621874     -0.424315
  H      -1.672361     -3.133358      1.522173
  H      -0.868768     -0.819391      1.365766
  H       2.263032      2.348865      2.058023
  H       2.588158      0.650755      2.377047
  H       3.849376      1.647702      1.618223
  Br     -3.240719      2.915165     -1.564558
  Br     -3.310411      4.719125      0.287799
  Br     -3.426128      6.473250      2.088071
25
Coordinates from ORCA-job orca_input_MEP E -132.591789151001
  Br      0.412196      3.008344     -0.302464
  C       0.310086      0.252004     -0.879151
  C       0.737127      1.156973      0.196585
  C       2.263261      1.037083      0.353455
  O       2.927453      0.638513     -0.569506
  C      -0.293959     -0.968185     -0.722486
  C      -0.271504     -1.834156     -1.851529
  C      -0.676554     -3.133751     -1.729630
  C      -1.169011     -3.574523     -0.506167
  C      -1.248765     -2.734459      0.608031
  C      -0.805202     -1.448243      0.516142
  C       2.804440      1.416771      1.681263
  H       0.616815      0.533911     -1.879601
  H       0.236154      0.998004      1.144606
  H       0.115735     -1.458559     -2.787980
  H      -0.619710     -3.811008     -2.568591
  H      -1.505577     -4.599237     -0.413619
  H      -1.655905     -3.111955      1.534530
  H      -0.863836     -0.794158      1.373346
  H       2.311224      2.305232      2.066850
  H       2.591849      0.594734      2.366043
  H       3.876823      1.565852      1.612033
  Br     -3.179660      2.817143     -1.535101
  Br     -3.348491      4.673752      0.271500
  Br     -3.564988      6.469920      2.021443
25
Coordinates from ORCA-job orca_input_MEP E -132.591584578059
  Br      0.475402      3.038663     -0.285232
  C       0.296109      0.282593     -0.879144
  C       0.745733      1.175400      0.197380
  C       2.268726      1.013624      0.347712
  O       2.918407      0.607680     -0.581726
  C      -0.304538     -0.939227     -0.719193
  C      -0.287126     -1.804236     -1.848888
  C      -0.683053     -3.106582     -1.724454
  C      -1.164744     -3.550858     -0.498101
  C      -1.240808     -2.711391      0.616794
  C      -0.803501     -1.423153      0.522678
  C       2.825301      1.365047      1.676762
  H       0.586876      0.569651     -1.882673
  H       0.243776      1.024033      1.145961
  H       0.091203     -1.427042     -2.788198
  H      -0.628063     -3.783607     -2.563832
  H      -1.495632     -4.577374     -0.403654
  H      -1.640111     -3.091197      1.545767
  H      -0.859597     -0.770041      1.380684
  H       2.358138      2.261592      2.074623
  H       2.594928      0.541814      2.353977
  H       3.900564      1.486431      1.603522
  Br     -3.108741      2.728858     -1.493752
  Br     -3.384825      4.632433      0.258633
  Br     -3.704423      6.456891      1.944354
25
Coordinates from ORCA-job orca_input_MEP E -132.591728467838
  Br      0.535755      3.067373     -0.270350
  C       0.282155      0.311811     -0.878655
  C       0.753222      1.193203      0.198430
  C       2.273572      0.991483      0.342060
  O       2.909640      0.579162     -0.594508
  C      -0.314466     -0.912194     -0.715681
  C      -0.301529     -1.775783     -1.846148
  C      -0.689141     -3.080678     -1.719403
  C      -1.160630     -3.527978     -0.490328
  C      -1.233508     -2.689491      0.625476
  C      -0.801946     -1.399280      0.529367
  C       2.844411      1.315654      1.672052
  H       0.559156      0.603725     -1.884804
  H       0.251508      1.048540      1.148497
  H       0.068451     -1.396226     -2.787876
  H      -0.635614     -3.756993     -2.559467
  H      -1.486104     -4.556138     -0.394406
  H      -1.625613     -3.071379      1.556676
  H      -0.855755     -0.746871      1.388120
  H       2.401276      2.219743      2.080909
  H       2.596648      0.491210      2.341881
  H       3.922237      1.410913      1.594511
  Br     -3.038354      2.642914     -1.455126
  Br     -3.419264      4.593461      0.246214
  Br     -3.836106      6.443821      1.872557
25
Coordinates from ORCA-job orca_input_MEP E -132.591868171917
  Br      0.605972      3.098476     -0.253316
  C       0.264084      0.348047     -0.877168
  C       0.762197      1.214767      0.199901
  C       2.278049      0.965681      0.334156
  O       2.897526      0.546431     -0.609842
  C      -0.326358     -0.879568     -0.710820
  C      -0.318015     -1.741521     -1.842000
  C      -0.695876     -3.049465     -1.713158
  C      -1.155779     -3.500787     -0.481341
  C      -1.224908     -2.663444      0.635443
  C      -0.800091     -1.370950      0.537515
  C       2.865167      1.257356      1.665124
  H       0.524964      0.645317     -1.886035
  H       0.261830      1.078236      1.151938
  H       0.042165     -1.359425     -2.786505
  H      -0.644104     -3.724856     -2.554154
  H      -1.475026     -4.530823     -0.383995
  H      -1.608929     -3.047873      1.569050
  H      -0.851612     -0.719583      1.397091
  H       2.451303      2.169364      2.086923
  H       2.596815      0.432726      2.326768
  H       3.944997      1.321534      1.582339
  Br     -2.947803      2.542429     -1.402698
  Br     -3.457124      4.548531      0.234562
  Br     -3.989443      6.419399      1.780222
25
Coordinates from ORCA-job orca_input_MEP E -132.592134821137
  Br      0.688317      3.132971     -0.231747
  C       0.240229      0.392453     -0.874191
  C       0.771627      1.240728      0.202353
  C       2.280236      0.936130      0.323748
  O       2.879206      0.508912     -0.628754
  C      -0.340157     -0.841416     -0.704106
  C      -0.336499     -1.700848     -1.836126
  C      -0.703031     -3.012399     -1.705612
  C      -1.149921     -3.468983     -0.471216
  C      -1.215121     -2.633336      0.646683
  C      -0.798197     -1.338002      0.547139
  C       2.885831      1.190480      1.655007
  H       0.480304      0.697312     -1.885922
  H       0.273840      1.113445      1.157092
  H       0.012422     -1.315383     -2.783644
  H      -0.652716     -3.686221     -2.547972
  H      -1.462074     -4.501111     -0.372902
  H      -1.589842     -3.020772      1.582824
  H      -0.847910     -0.687947      1.407794
  H       2.506301      2.110766      2.091099
  H       2.594166      0.366913      2.307994
  H       3.966710      1.218766      1.564826
  Br     -2.827981      2.421218     -1.333240
  Br     -3.493500      4.495491      0.225193
  Br     -4.162239      6.380832      1.663681
25
Coordinates from ORCA-job orca_input_MEP E -132.592686371053
  Br      0.770225      3.167652     -0.205052
  C       0.201329      0.445964     -0.870895
  C       0.772723      1.270027      0.204802
  C       2.273117      0.908223      0.312200
  O       2.852355      0.471986     -0.649221
  C      -0.355047     -0.804111     -0.696779
  C      -0.351207     -1.660644     -1.828079
  C      -0.707542     -2.976342     -1.697272
  C      -1.143630     -3.439236     -0.462039
  C      -1.205306     -2.605418      0.656233
  C      -0.796445     -1.306477      0.555585
  C       2.898484      1.128777      1.641555
  H       0.423842      0.756182     -1.884735
  H       0.281046      1.150219      1.163695
  H      -0.013738     -1.271891     -2.778625
  H      -0.657779     -3.647812     -2.541773
  H      -1.449160     -4.473231     -0.363805
  H      -1.572072     -2.995199      1.594628
  H      -0.846913     -0.657731      1.417085
  H       2.551866      2.055571      2.091182
  H       2.587617      0.307304      2.288133
  H       3.979266      1.125008      1.542024
  Br     -2.669295      2.273553     -1.256366
  Br     -3.512761      4.448684      0.226090
  Br     -4.310973      6.328942      1.541428
25
Coordinates from ORCA-job orca_input_MEP E -132.594748816452
  Br      0.821729      3.202424     -0.176424
  C       0.125681      0.506311     -0.872976
  C       0.750715      1.298688      0.204297
  C       2.244291      0.896733      0.298818
  O       2.811070      0.450566     -0.662384
  C      -0.371659     -0.785843     -0.694473
  C      -0.352239     -1.640771     -1.818563
  C      -0.703196     -2.961864     -1.688922
  C      -1.139381     -3.431532     -0.457951
  C      -1.200082     -2.597332      0.656729
  C      -0.801473     -1.291235      0.552893
  C       2.885236      1.107545      1.626300
  H       0.356047      0.809866     -1.886387
  H       0.267940      1.182497      1.168214
  H      -0.017799     -1.253423     -2.770766
  H      -0.651020     -3.629548     -2.536706
  H      -1.444020     -4.465728     -0.361823
  H      -1.563004     -2.985281      1.597551
  H      -0.857442     -0.644048      1.415475
  H       2.554024      2.035997      2.083337
  H       2.576699      0.287448      2.275443
  H       3.965365      1.095868      1.517914
  Br     -2.425456      2.074025     -1.211345
  Br     -3.485281      4.455105      0.263329
  Br     -4.346745      6.283531      1.478419
25
Coordinates from ORCA-job orca_input_MEP E -132.609638628846
  Br      0.864220      3.234305     -0.139173
  C      -0.023378      0.614796     -0.884756
  C       0.736028      1.318827      0.198958
  C       2.218928      0.893959      0.268543
  O       2.785115      0.463388     -0.702900
  C      -0.400899     -0.777917     -0.689582
  C      -0.336443     -1.633970     -1.794112
  C      -0.689556     -2.963155     -1.671492
  C      -1.139123     -3.442693     -0.451506
  C      -1.199361     -2.606540      0.654981
  C      -0.817094     -1.285571      0.545073
  C       2.884659      1.080828      1.594475
  H       0.336594      0.829990     -1.882087
  H       0.275718      1.203062      1.173845
  H       0.005881     -1.255281     -2.747913
  H      -0.628373     -3.626128     -2.524538
  H      -1.447703     -4.476055     -0.360804
  H      -1.559581     -2.991246      1.599650
  H      -0.876542     -0.647254      1.415228
  H       2.574955      2.011042      2.066392
  H       2.575180      0.261193      2.245695
  H       3.966609      1.057802      1.480829
  Br     -2.100749      1.892816     -1.182345
  Br     -3.552077      4.540282      0.299062
  Br     -4.453009      6.303521      1.488478
25
Coordinates from ORCA-job orca_input_MEP E -132.635356764751
  Br      1.360279      3.289231     -0.017431
  C      -0.061495      0.888702     -0.775809
  C       0.917157      1.402207      0.256555
  C       2.268436      0.700075      0.175135
  O       2.672965      0.277085     -0.879744
  C      -0.405959     -0.561744     -0.598281
  C      -0.379738     -1.391182     -1.710934
  C      -0.729596     -2.725350     -1.600189
  C      -1.109617     -3.241831     -0.373867
  C      -1.133127     -2.420671      0.741723
  C      -0.785155     -1.086117      0.632426
  C       3.016607      0.586153      1.456180
  H       0.328307      1.059978     -1.773338
  H       0.518051      1.350663      1.263975
  H      -0.086409     -0.985272     -2.670438
  H      -0.707707     -3.359141     -2.475281
  H      -1.390444     -4.281706     -0.287473
  H      -1.432761     -2.818824      1.700878
  H      -0.831331     -0.452737      1.509003
  H       2.966430      1.516914      2.015316
  H       2.530960     -0.182005      2.058449
  H       4.046882      0.306773      1.268084
  Br     -1.731730      1.941565     -0.738181
  Br     -4.288314      4.208958      0.051866
  Br     -5.552693      5.978277      0.771378
25
Coordinates from ORCA-job orca_input_MEP E -132.635935868431
  Br      1.713616      3.264750      0.026777
  C      -0.027342      1.055723     -0.656936
  C       1.078537      1.434874      0.302964
  C       2.317618      0.564940      0.110401
  O       2.628610      0.185445     -0.991733
  C      -0.420963     -0.384460     -0.519125
  C      -0.443538     -1.188065     -1.649169
  C      -0.781110     -2.526961     -1.550050
  C      -1.096735     -3.072945     -0.317433
  C      -1.077972     -2.273464      0.814688
  C      -0.744449     -0.935042      0.714740
  C       3.075704      0.224843      1.345696
  H       0.272885      1.266940     -1.676926
  H       0.746201      1.408934      1.335382
  H      -0.189679     -0.763982     -2.611605
  H      -0.794856     -3.144453     -2.437853
  H      -1.359042     -4.119269     -0.238044
  H      -1.327773     -2.693291      1.779557
  H      -0.751112     -0.317776      1.603225
  H       3.220419      1.109988      1.962221
  H       2.475302     -0.478998      1.924243
  H       4.029205     -0.228000      1.093217
  Br     -1.604835      2.199026     -0.363152
  Br     -4.641441      3.926032     -0.147382
  Br     -6.297254      5.485210      0.146297
