25
product_unopt
Br     -0.81240      4.14428       0.75811
 C     -0.98498      1.51859       0.45829
 C     -1.02927      2.38799       1.62753
 C      0.15379      2.20938       2.57691
 O      1.13065      1.60695       2.21232
 C     -1.55190      0.26940       0.32535
 C     -1.44713     -0.35953      -0.94060
 C     -1.97964     -1.60514      -1.13654
 C     -2.62599     -2.23651      -0.08050
 C     -2.74674     -1.63819       1.17475
 C     -2.21742     -0.39752       1.38551
 C     -0.01185      2.80102       3.93014
 H      0.06911      1.95613      -0.42463
 H     -1.97393      2.41649       2.15565
 H     -0.94060      0.16124      -1.74153
 H     -1.90289     -2.09278      -2.09689
 H     -3.04919     -3.22040      -0.23432
 H     -3.25733     -2.15838       1.97157
 H     -2.31137      0.07076       2.35382
 H     -0.40821      3.81208       3.86404
 H     -0.73959      2.19872       4.47552
 H      0.93618      2.79588       4.45795
Br     -2.57777      2.28802       0.05711
Br     -5.67287      3.32908      -1.12172
Br     -7.59607      4.21446      -1.79176
