25
Coordinates from ORCA-job orca_input E -132.598895032434
  Br         -2.49540930119794      3.56762904921004      1.18900800788944
  C          -0.98497538905414      1.51858871797744      0.45828589281301
  C          -0.99492479220951      2.37099346272695      1.64076967933038
  C           0.24851728963863      3.24644796348352      1.78325807585322
  O           0.99450320536259      3.38668873412714      0.84841589533889
  C          -1.55190326910114      0.26939941705985      0.32535171657903
  C          -1.44712702649985     -0.35953277248143     -0.94059849473648
  C          -1.97963582275015     -1.60514297779735     -1.13653521681052
  C          -2.62598839454515     -2.23650824838201     -0.08050002696223
  C          -2.74673739256856     -1.63818647135997      1.17475007334858
  C          -2.21741867664141     -0.39751945832829      1.38551371844269
  C           0.45244004224883      3.86210725575676      3.12045387159104
  H          -0.48481080840903      1.94611097164094     -0.40445726362745
  H          -1.25621731040504      1.88115777096421      2.57021991476156
  H          -0.94059757367410      0.16123979831383     -1.74152610505172
  H          -1.90288805546025     -2.09278435974274     -2.09688941220121
  H          -3.04918787415137     -3.22039501140114     -0.23431585791104
  H          -3.25732969686951     -2.15838380432840      1.97157123973230
  H          -2.31136534467983      0.07076284868456      2.35381993964844
  H          -0.47215230500531      4.30182977605536      3.48854834532912
  H           0.73933798417784      3.07228717369547      3.81591999715771
  H           1.23785193884202      4.60914293443628      3.07116680775800
  Br         -5.03852796877863      5.53532092374655      0.51379543726005
  Br         -3.15621532539226      7.48075972636335      0.55122757802174
  Br         -1.44197813287663      9.21385657957891      0.58956618644535
