23
Coordinates from ORCA-job orca_input E -105.833509208841
  Br          0.90249133687261     -1.10013084967979      0.28867563269833
  C          -0.24832077220608      1.48117260695623      0.27361392039867
  C           0.89015978716362      0.74962981720547     -0.41131714097598
  C           2.23940809257504      1.33968239934282     -0.18226125344367
  O           2.46653242466713      1.61024172591847      1.12378002664339
  C          -1.60774985655837      0.89428649918520      0.06096070064981
  C          -2.08311665385156      0.59496353923554     -1.20956699537800
  C          -3.33837813709956      0.04006741783407     -1.37071791695604
  C          -4.13437708186910     -0.21802419176295     -0.26423088233317
  C          -3.66789163569512      0.08434941296134      1.00265593305381
  C          -2.40866123263975      0.63979749309818      1.16295905986984
  C           3.09534574974711      1.56122683657459     -1.16983164392109
  H          -0.03911717285893      1.58167181299580      1.33239619343823
  H           0.71552899435566      0.63867491951996     -1.47452202021389
  H          -1.47712403885817      0.80318236374565     -2.08137238726053
  H          -3.69945365444450     -0.19093872222314     -2.36370758187855
  H          -5.11686295268675     -0.65185842295309     -0.39248983258329
  H          -4.28281487620570     -0.11247533695022      1.87032672117743
  H          -2.04293052402886      0.87238189643015      2.15454940247061
  H           2.82345863439792      1.31561035838353     -2.18506972781575
  H           3.33700611183438      2.00271712367325      1.23919237812114
  H           4.07030875159430      1.99199758405786     -0.98335205022066
  Br         -0.24106129420526      3.35058371645105     -0.38176053554063
