23
Coordinates from ORCA-job orca_input E -105.770615742171
  Br      1.567740     -1.434320      0.059630
  C      -0.132460      0.540800      0.489800
  C       1.011600      0.402680     -0.421760
  C       2.111940      1.374840     -0.173890
  O       2.449230      1.451910      1.130280
  C      -1.465390      0.404040      0.176880
  C      -1.932420      0.128360     -1.135240
  C      -3.272840      0.020300     -1.366000
  C      -4.170690      0.183320     -0.309530
  C      -3.742240      0.452790      0.985510
  C      -2.401300      0.560530      1.233060
  C       2.647140      2.071940     -1.165060
  H       0.126430      0.764930      1.518830
  H       0.754700      0.371210     -1.470990
  H      -1.235010      0.000560     -1.949020
  H      -3.642690     -0.189160     -2.358720
  H      -5.231270      0.096630     -0.506060
  H      -4.461540      0.573060      1.781790
  H      -2.035960      0.766610      2.230000
  H       2.299110      1.930030     -2.176650
  H       3.161960      2.084970      1.263030
  H       3.437170      2.787900     -0.981870
  Br      0.309170      3.934880     -0.815110
23
Coordinates from ORCA-job orca_input E -105.773253007141
  Br      1.575605     -1.437779      0.039694
  C      -0.131304      0.551156      0.487493
  C       1.012913      0.407478     -0.423280
  C       2.123261      1.361200     -0.174538
  O       2.450184      1.450989      1.135003
  C      -1.466575      0.406055      0.176945
  C      -1.932731      0.128746     -1.132848
  C      -3.273715      0.018022     -1.363964
  C      -4.171790      0.180581     -0.308593
  C      -3.742789      0.451777      0.985179
  C      -2.400892      0.561976      1.231677
  C       2.662814      2.049397     -1.163083
  H       0.128764      0.774661      1.516079
  H       0.755092      0.383484     -1.471837
  H      -1.234887      0.005006     -1.946800
  H      -3.642960     -0.191237     -2.356968
  H      -5.232290      0.092996     -0.504948
  H      -4.461719      0.573068      1.781674
  H      -2.035190      0.772171      2.227529
  H       2.308054      1.915894     -2.170465
  H       3.158184      2.088141      1.266142
  H       3.441364      2.773808     -0.978722
  Br      0.262987      3.961219     -0.812457
23
Coordinates from ORCA-job orca_input E -105.775148039558
  Br      1.583499     -1.444145      0.013695
  C      -0.129556      0.557833      0.486048
  C       1.012520      0.408499     -0.424511
  C       2.133292      1.346116     -0.174519
  O       2.447510      1.447989      1.139577
  C      -1.465711      0.407541      0.177473
  C      -1.930571      0.128169     -1.131099
  C      -3.271805      0.016170     -1.362475
  C      -4.170190      0.180891     -0.307963
  C      -3.740969      0.454982      0.985003
  C      -2.398665      0.566565      1.231143
  C       2.679236      2.028467     -1.160880
  H       0.131426      0.783900      1.513911
  H       0.752141      0.392288     -1.472752
  H      -1.232226      0.005098     -1.944721
  H      -3.640304     -0.194391     -2.355481
  H      -5.230657      0.093404     -0.504312
  H      -4.459579      0.578710      1.781396
  H      -2.033039      0.780509      2.226220
  H       2.316233      1.905366     -2.167253
  H       3.149070      2.092645      1.269343
  H       3.444653      2.766647     -0.973280
  Br      0.206074      3.975555     -0.805653
23
Coordinates from ORCA-job orca_input E -105.777003420886
  Br      1.591545     -1.450681     -0.029426
  C      -0.128294      0.565462      0.482981
  C       1.010715      0.409690     -0.428705
  C       2.145697      1.330061     -0.173883
  O       2.442220      1.440621      1.144452
  C      -1.464197      0.409496      0.177195
  C      -1.929316      0.123416     -1.129937
  C      -3.270684      0.009886     -1.359689
  C      -4.168364      0.180883     -0.305442
  C      -3.738285      0.462104      0.985840
  C      -2.395868      0.575282      1.230758
  C       2.707932      2.005285     -1.156488
  H       0.133110      0.796961      1.509469
  H       0.747248      0.405960     -1.476282
  H      -1.231766     -0.002586     -1.943622
  H      -3.639454     -0.205500     -2.351556
  H      -5.229007      0.093249     -0.500724
  H      -4.456177      0.591215      1.782024
  H      -2.030088      0.796067      2.224231
  H       2.340039      1.895498     -2.163192
  H       3.134839      2.094761      1.275802
  H       3.459907      2.755955     -0.961462
  Br      0.120630      3.995725     -0.793430
23
Coordinates from ORCA-job orca_input E -105.778365013848
  Br      1.598662     -1.450645     -0.078827
  C      -0.128888      0.574564      0.478921
  C       1.007012      0.414025     -0.435710
  C       2.154683      1.320733     -0.172938
  O       2.437931      1.429867      1.147502
  C      -1.463419      0.413466      0.175979
  C      -1.930116      0.116406     -1.129120
  C      -3.271267     -0.000953     -1.355869
  C      -4.167743      0.177761     -0.301555
  C      -3.736802      0.469985      0.987146
  C      -2.394635      0.586917      1.229873
  C       2.741865      1.984196     -1.150898
  H       0.132551      0.812472      1.503806
  H       0.740585      0.426038     -1.482575
  H      -1.233930     -0.014895     -1.943103
  H      -3.640992     -0.224791     -2.345495
  H      -5.228554      0.087633     -0.494903
  H      -4.454030      0.604942      1.782948
  H      -2.028452      0.816535      2.221158
  H       2.375874      1.884841     -2.160180
  H       3.123755      2.090417      1.284152
  H       3.492793      2.734451     -0.947300
  Br      0.025497      4.024846     -0.774103
23
Coordinates from ORCA-job orca_input E -105.779293828492
  Br      1.603791     -1.442743     -0.112769
  C      -0.131236      0.583420      0.473591
  C       1.003029      0.421007     -0.443868
  C       2.156777      1.321731     -0.171923
  O       2.434369      1.421818      1.148934
  C      -1.464248      0.418950      0.172979
  C      -1.933794      0.111639     -1.129793
  C      -3.274685     -0.011210     -1.352415
  C      -4.169247      0.171582     -0.296810
  C      -3.736759      0.473339      0.989281
  C      -2.394902      0.596092      1.228238
  C       2.771238      1.969125     -1.145809
  H       0.130107      0.826753      1.497091
  H       0.735638      0.446339     -1.490334
  H      -1.239466     -0.022950     -1.944865
  H      -3.646332     -0.242636     -2.339550
  H      -5.230217      0.076853     -0.487202
  H      -4.452912      0.610643      1.785634
  H      -2.027254      0.832499      2.217406
  H       2.415518      1.872623     -2.159558
  H       3.118226      2.082912      1.293415
  H       3.537199      2.702771     -0.935790
  Br     -0.052460      4.058253     -0.756972
23
Coordinates from ORCA-job orca_input E -105.780220539184
  Br      1.607068     -1.427608     -0.132681
  C      -0.134510      0.592544      0.468220
  C       0.998449      0.431458     -0.453013
  C       2.154284      1.330989     -0.172675
  O       2.432097      1.416089      1.147999
  C      -1.466066      0.425592      0.169605
  C      -1.938058      0.108760     -1.130900
  C      -3.278396     -0.021733     -1.349593
  C      -4.171445      0.162597     -0.292594
  C      -3.738038      0.473811      0.991072
  C      -2.396675      0.604148      1.226131
  C       2.798595      1.955095     -1.143854
  H       0.127428      0.839818      1.490503
  H       0.730180      0.469302     -1.498999
  H      -1.244962     -0.027553     -1.946894
  H      -3.651752     -0.260764     -2.334251
  H      -5.232350      0.061373     -0.480138
  H      -4.453519      0.611665      1.787902
  H      -2.027529      0.847279      2.213153
  H       2.458695      1.856115     -2.163266
  H       3.118336      2.072412      1.302526
  H       3.593456      2.654409     -0.930124
  Br     -0.132909      4.103009     -0.729220
23
Coordinates from ORCA-job orca_input E -105.781004125553
  Br      1.603592     -1.411655     -0.124950
  C      -0.136239      0.596938      0.464135
  C       0.996407      0.441508     -0.460568
  C       2.150142      1.345754     -0.176991
  O       2.431887      1.416523      1.143329
  C      -1.467210      0.428542      0.166772
  C      -1.940416      0.106076     -1.132273
  C      -3.280376     -0.029084     -1.348966
  C      -4.172775      0.156757     -0.291509
  C      -3.739126      0.474075      0.990687
  C      -2.398005      0.607954      1.223656
  C       2.817635      1.946065     -1.148142
  H       0.126992      0.844482      1.485996
  H       0.727503      0.485138     -1.506295
  H      -1.247591     -0.031532     -1.948368
  H      -3.654776     -0.273126     -2.331984
  H      -5.233567      0.051674     -0.477633
  H      -4.454567      0.613229      1.787300
  H      -2.027705      0.855974      2.209075
  H       2.493434      1.840253     -2.172095
  H       3.123205      2.065223      1.306699
  H       3.647342      2.602829     -0.934440
  Br     -0.213408      4.145214     -0.684527
23
Coordinates from ORCA-job orca_input E -105.781609517638
  Br      1.580058     -1.404789     -0.082541
  C      -0.135106      0.597608      0.462178
  C       0.999022      0.446707     -0.462328
  C       2.148087      1.358488     -0.182803
  O       2.433819      1.426443      1.137014
  C      -1.466718      0.429281      0.164489
  C      -1.939624      0.109197     -1.134818
  C      -3.279647     -0.026767     -1.351763
  C      -4.172074      0.156005     -0.293940
  C      -3.738424      0.470910      0.988803
  C      -2.397183      0.604718      1.221723
  C       2.822155      1.944676     -1.157759
  H       0.129366      0.840960      1.484788
  H       0.731994      0.482327     -1.508992
  H      -1.246380     -0.026569     -1.950883
  H      -3.654250     -0.269507     -2.335027
  H      -5.232753      0.049908     -0.480084
  H      -4.453959      0.607581      1.785759
  H      -2.026226      0.850321      2.207523
  H       2.506183      1.829010     -2.183018
  H       3.130406      2.068860      1.302527
  H       3.678085      2.570558     -0.948787
  Br     -0.264451      4.162885     -0.643153
23
Coordinates from ORCA-job orca_input E -105.782127928635
  Br      1.546412     -1.405703     -0.026405
  C      -0.131609      0.596412      0.462961
  C       1.004932      0.447325     -0.458305
  C       2.150499      1.364174     -0.188732
  O       2.438450      1.441273      1.130489
  C      -1.465048      0.428394      0.163883
  C      -1.935800      0.116553     -1.136934
  C      -3.276179     -0.017103     -1.356553
  C      -4.169712      0.159943     -0.299167
  C      -3.736742      0.466663      0.985553
  C      -2.395055      0.597488      1.220727
  C       2.817548      1.946344     -1.170117
  H       0.133728      0.834542      1.486697
  H       0.741189      0.465160     -1.506349
  H      -1.241320     -0.015059     -1.952588
  H      -3.649627     -0.253860     -2.341741
  H      -5.230232      0.055605     -0.487032
  H      -4.452780      0.599164      1.782783
  H      -2.024608      0.836375      2.208353
  H       2.500861      1.820880     -2.193736
  H       3.138521      2.081082      1.291513
  H       3.685911      2.560021     -0.968769
  Br     -0.296959      4.153137     -0.607621
23
Coordinates from ORCA-job orca_input E -105.782809824726
  Br      1.477720     -1.415507      0.065534
  C      -0.122551      0.594124      0.467302
  C       1.018907      0.444591     -0.445656
  C       2.162089      1.363758     -0.198301
  O       2.450726      1.468627      1.119059
  C      -1.460222      0.425235      0.164975
  C      -1.925068      0.130392     -1.138880
  C      -3.266319      0.004338     -1.365711
  C      -4.163232      0.172657     -0.310913
  C      -3.732406      0.462610      0.977800
  C      -2.389655      0.584899      1.219426
  C       2.805922      1.948559     -1.192472
  H       0.142748      0.825637      1.492800
  H       0.762228      0.425069     -1.495587
  H      -1.227575      0.005878     -1.952950
  H      -3.635938     -0.219585     -2.355406
  H      -5.223439      0.074871     -0.503617
  H      -4.449924      0.589505      1.774683
  H      -2.021872      0.811043      2.210970
  H       2.479148      1.807229     -2.210437
  H       3.153006      2.109736      1.265452
  H       3.678666      2.564657     -1.006279
  Br     -0.360579      4.100488     -0.542882
23
Coordinates from ORCA-job orca_input E -105.783403398376
  Br      1.453794     -1.424455      0.095609
  C      -0.117078      0.597188      0.470479
  C       1.027353      0.443190     -0.436546
  C       2.176167      1.354041     -0.202735
  O       2.462653      1.478773      1.113123
  C      -1.457609      0.424226      0.166357
  C      -1.917845      0.135205     -1.138304
  C      -3.259704      0.014845     -1.370278
  C      -4.159510      0.183336     -0.318753
  C      -3.730489      0.467177      0.971424
  C      -2.387044      0.583719      1.217786
  C       2.804185      1.944923     -1.203977
  H       0.145788      0.832483      1.495825
  H       0.774567      0.403692     -1.486816
  H      -1.218288      0.011403     -1.950670
  H      -3.625896     -0.204097     -2.362414
  H      -5.219511      0.090968     -0.514969
  H      -4.449149      0.595145      1.767180
  H      -2.022174      0.806211      2.211172
  H       2.466920      1.796940     -2.217620
  H       3.163369      2.124301      1.248108
  H       3.667559      2.577764     -1.026020
  Br     -0.425678      4.041830     -0.489052
23
Coordinates from ORCA-job orca_input E -105.784446780052
  Br      1.468079     -1.430112      0.089121
  C      -0.115725      0.621432      0.470565
  C       1.029831      0.448399     -0.429152
  C       2.201867      1.327049     -0.205432
  O       2.486456      1.470911      1.108418
  C      -1.458266      0.433783      0.165872
  C      -1.912275      0.136722     -1.136933
  C      -3.254338      0.015723     -1.373370
  C      -4.158110      0.190221     -0.326916
  C      -3.731813      0.479963      0.962274
  C      -2.388259      0.599389      1.212730
  C       2.814308      1.930099     -1.211520
  H       0.140468      0.875531      1.493080
  H       0.779488      0.393643     -1.478758
  H      -1.210778      0.009427     -1.947104
  H      -3.615205     -0.207386     -2.366598
  H      -5.217574      0.098504     -0.526010
  H      -4.451647      0.612904      1.756271
  H      -2.028807      0.828765      2.206429
  H       2.458566      1.783010     -2.219471
  H       3.186269      2.120601      1.228904
  H       3.648409      2.599901     -1.038313
  Br     -0.518564      3.940334     -0.395177
23
Coordinates from ORCA-job orca_input E -105.785212538560
  Br      1.407314     -1.433946      0.068788
  C      -0.117408      0.663147      0.469053
  C       1.027125      0.465379     -0.427370
  C       2.216600      1.317752     -0.205719
  O       2.512102      1.461635      1.102905
  C      -1.457059      0.457868      0.163124
  C      -1.905784      0.142408     -1.137150
  C      -3.246085      0.004473     -1.374409
  C      -4.153597      0.177036     -0.330749
  C      -3.731986      0.481638      0.956554
  C      -2.390520      0.621295      1.207407
  C       2.830836      1.915630     -1.216536
  H       0.133044      0.926552      1.490404
  H       0.779289      0.407662     -1.478247
  H      -1.202718      0.016366     -1.946168
  H      -3.602147     -0.230649     -2.366618
  H      -5.211700      0.071763     -0.530322
  H      -4.453781      0.611770      1.749282
  H      -2.036685      0.864154      2.199871
  H       2.470898      1.766071     -2.223019
  H       3.218748      2.105216      1.215525
  H       3.657460      2.590492     -1.048803
  Br     -0.591568      3.875099     -0.298893
23
Coordinates from ORCA-job orca_input E -105.786621848632
  Br      1.296613     -1.400950      0.016114
  C      -0.136576      0.772692      0.455569
  C       0.993614      0.523119     -0.439824
  C       2.233471      1.299513     -0.204855
  O       2.555199      1.415590      1.097219
  C      -1.467623      0.521087      0.151458
  C      -1.907250      0.154918     -1.139330
  C      -3.240885     -0.043526     -1.369250
  C      -4.153160      0.112883     -0.326839
  C      -3.741049      0.461638      0.952407
  C      -2.407126      0.667912      1.194516
  C       2.870266      1.883699     -1.214052
  H       0.107938      1.051354      1.473603
  H       0.744857      0.485610     -1.489225
  H      -1.203816      0.039485     -1.949499
  H      -3.587869     -0.314848     -2.355466
  H      -5.206444     -0.040732     -0.520566
  H      -4.464819      0.576022      1.745845
  H      -2.064387      0.949182      2.180651
  H       2.506001      1.751725     -2.221629
  H       3.294037      2.022209      1.206603
  H       3.695831      2.553451     -1.041462
  Br     -0.564442      3.836777     -0.163077
23
Coordinates from ORCA-job orca_input E -105.788308005282
  Br      1.135204     -1.336864     -0.043340
  C      -0.165611      0.916339      0.430744
  C       0.944968      0.610495     -0.461581
  C       2.242076      1.286077     -0.204342
  O       2.584609      1.352973      1.092178
  C      -1.487280      0.604903      0.130835
  C      -1.916541      0.177763     -1.144726
  C      -3.237207     -0.108245     -1.357512
  C      -4.150443      0.015924     -0.311850
  C      -3.749583      0.421425      0.953848
  C      -2.430035      0.720689      1.175893
  C       2.923701      1.841447     -1.206106
  H       0.073261      1.208632      1.445061
  H       0.701457      0.608818     -1.509661
  H      -1.216925      0.082969     -1.960735
  H      -3.572925     -0.425925     -2.333823
  H      -5.193540     -0.208079     -0.491714
  H      -4.471432      0.508074      1.752661
  H      -2.100381      1.049588      2.151759
  H       2.567812      1.736568     -2.220122
  H       3.369492      1.896850      1.207729
  H       3.767155      2.483566     -1.019869
  Br     -0.465452      3.834824     -0.036417
23
Coordinates from ORCA-job orca_input E -105.790441241861
  Br      1.050435     -1.290862     -0.089683
  C      -0.185519      1.016553      0.405043
  C       0.917450      0.666038     -0.483589
  C       2.242521      1.279672     -0.203440
  O       2.591428      1.305387      1.091777
  C      -1.502619      0.664692      0.110984
  C      -1.928007      0.196823     -1.151064
  C      -3.237326     -0.149625     -1.346116
  C      -4.146523     -0.048073     -0.295062
  C      -3.751004      0.397877      0.958168
  C      -2.443812      0.760133      1.159620
  C       2.959468      1.813499     -1.194458
  H       0.049877      1.319864      1.415725
  H       0.682721      0.691831     -1.532345
  H      -1.235106      0.115888     -1.974311
  H      -3.566900     -0.499372     -2.313605
  H      -5.180311     -0.321068     -0.460508
  H      -4.467572      0.466475      1.763575
  H      -2.121115      1.122122      2.126197
  H       2.619745      1.726966     -2.215745
  H       3.402201      1.806343      1.220118
  H       3.817020      2.432506     -0.993938
  Br     -0.414672      3.805142      0.041568
23
Coordinates from ORCA-job orca_input E -105.792569333506
  Br      1.003350     -1.270920     -0.098958
  C      -0.193615      1.070424      0.391655
  C       0.906802      0.688690     -0.491508
  C       2.244038      1.274152     -0.204455
  O       2.592135      1.287948      1.090499
  C      -1.509507      0.696761      0.101671
  C      -1.931532      0.212936     -1.154083
  C      -3.234929     -0.161666     -1.341734
  C      -4.141805     -0.074485     -0.288051
  C      -3.748719      0.386562      0.960246
  C      -2.448151      0.778190      1.152573
  C       2.975539      1.799014     -1.191118
  H       0.042651      1.371673      1.401926
  H       0.678631      0.718776     -1.541354
  H      -1.241908      0.141907     -1.981137
  H      -3.560649     -0.523297     -2.306236
  H      -5.170289     -0.370356     -0.447034
  H      -4.461927      0.444110      1.769597
  H      -2.129315      1.152712      2.115700
  H       2.644330      1.716920     -2.215656
  H       3.412835      1.771248      1.222569
  H       3.835165      2.412923     -0.984326
  Br     -0.410749      3.754587      0.078122
23
Coordinates from ORCA-job orca_input E -105.795264468137
  Br      0.961562     -1.249969     -0.097510
  C      -0.201888      1.127292      0.378190
  C       0.895537      0.710219     -0.496795
  C       2.244847      1.268340     -0.204726
  O       2.590125      1.277267      1.090405
  C      -1.517656      0.730211      0.092979
  C      -1.936821      0.236096     -1.158008
  C      -3.233786     -0.166899     -1.338866
  C      -4.136995     -0.099927     -0.281532
  C      -3.745371      0.370276      0.963578
  C      -2.452039      0.790921      1.147611
  C       2.992114      1.780554     -1.188121
  H       0.038227      1.415982      1.390409
  H       0.674688      0.739420     -1.547740
  H      -1.251378      0.179151     -1.989672
  H      -3.555804     -0.536144     -2.301837
  H      -5.159540     -0.418747     -0.434326
  H      -4.453940      0.412097      1.778103
  H      -2.136625      1.172520      2.109154
  H       2.670009      1.698962     -2.215776
  H       3.419828      1.744298      1.224460
  H       3.853032      2.390731     -0.976416
  Br     -0.405748      3.706158      0.095344
23
Coordinates from ORCA-job orca_input E -105.798968977046
  Br      0.917302     -1.229888     -0.080091
  C      -0.208035      1.180629      0.366201
  C       0.886807      0.726962     -0.497849
  C       2.245838      1.263216     -0.204367
  O       2.587442      1.277116      1.091139
  C      -1.524850      0.760909      0.085970
  C      -1.942062      0.264265     -1.162442
  C      -3.233113     -0.163457     -1.338481
  C      -4.131769     -0.120169     -0.277194
  C      -3.740004      0.351710      0.967016
  C      -2.453260      0.796992      1.144937
  C       3.006110      1.761453     -1.186901
  H       0.037862      1.446003      1.382793
  H       0.673936      0.746475     -1.550385
  H      -1.261216      0.224298     -1.998926
  H      -3.552154     -0.534461     -2.301900
  H      -5.148665     -0.458681     -0.425196
  H      -4.443063      0.375231      1.787208
  H      -2.140100      1.179195      2.107070
  H       2.692705      1.674003     -2.216928
  H       3.423713      1.732403      1.224624
  H       3.866371      2.371694     -0.973373
  Br     -0.407415      3.652911      0.095984
23
Coordinates from ORCA-job orca_input E -105.802726379039
  Br      0.907228     -1.220996     -0.054100
  C      -0.208629      1.207749      0.357938
  C       0.888534      0.728825     -0.495857
  C       2.249609      1.262515     -0.203206
  O       2.586295      1.289414      1.094019
  C      -1.530596      0.775861      0.082208
  C      -1.949693      0.286568     -1.165933
  C      -3.239066     -0.151386     -1.340063
  C      -4.133274     -0.125677     -0.275636
  C      -3.737403      0.339389      0.969644
  C      -2.452507      0.793913      1.144658
  C       3.015425      1.751261     -1.186411
  H       0.042813      1.446252      1.379655
  H       0.681659      0.733510     -1.550123
  H      -1.272755      0.259753     -2.006244
  H      -3.558417     -0.517031     -2.305564
  H      -5.147854     -0.472122     -0.421115
  H      -4.435423      0.349873      1.794578
  H      -2.137745      1.169624      2.108947
  H       2.708295      1.653061     -2.217510
  H       3.422736      1.744756      1.226414
  H       3.873386      2.365476     -0.974437
  Br     -0.420239      3.608222      0.077048
23
Coordinates from ORCA-job orca_input E -105.805786776274
  Br      0.905468     -1.215652     -0.036074
  C      -0.208370      1.226964      0.353480
  C       0.891551      0.729209     -0.494276
  C       2.253209      1.262939     -0.203487
  O       2.586209      1.298562      1.095581
  C      -1.536373      0.785420      0.081276
  C      -1.955511      0.302214     -1.166498
  C      -3.243958     -0.142863     -1.340745
  C      -4.135961     -0.129655     -0.275355
  C      -3.737637      0.330472      0.970774
  C      -2.453654      0.790967      1.144940
  C       3.021646      1.744607     -1.187128
  H       0.046430      1.444903      1.379207
  H       0.687919      0.723830     -1.550053
  H      -1.280263      0.284959     -2.008700
  H      -3.562559     -0.504392     -2.308164
  H      -5.148808     -0.481423     -0.419951
  H      -4.432560      0.332080      1.798534
  H      -2.138154      1.161844      2.110988
  H       2.717670      1.639339     -2.218589
  H       3.422437      1.754558      1.227262
  H       3.880248      2.359167     -0.977072
  Br     -0.426597      3.580760      0.062959
23
Coordinates from ORCA-job orca_input E -105.808198435095
  Br      0.906975     -1.212495     -0.024099
  C      -0.207914      1.240897      0.350515
  C       0.895007      0.729114     -0.493353
  C       2.256546      1.263702     -0.204344
  O       2.586486      1.304965      1.096515
  C      -1.541596      0.791787      0.081131
  C      -1.960211      0.313064     -1.166202
  C      -3.248156     -0.137113     -1.340900
  C      -4.138859     -0.132597     -0.275257
  C      -3.738834      0.324298      0.971335
  C      -2.455290      0.788909      1.145193
  C       3.026315      1.740474     -1.187863
  H       0.048691      1.443866      1.379121
  H       0.693535      0.717036     -1.550397
  H      -1.285860      0.302568     -2.009450
  H      -3.565878     -0.495788     -2.309773
  H      -5.150440     -0.488071     -0.419392
  H      -4.431632      0.319962      1.800981
  H      -2.139355      1.156514      2.112453
  H       2.724249      1.630630     -2.219460
  H       3.422371      1.761730      1.227891
  H       3.886437      2.354080     -0.979114
  Br     -0.430207      3.561277      0.053379
23
Coordinates from ORCA-job orca_input E -105.811125870203
  Br      0.924853     -1.213412     -0.017082
  C      -0.205448      1.251735      0.347802
  C       0.906645      0.726733     -0.494417
  C       2.264814      1.266718     -0.207453
  O       2.588844      1.312225      1.098000
  C      -1.552160      0.794798      0.082153
  C      -1.969177      0.321540     -1.163655
  C      -3.258192     -0.132249     -1.339488
  C      -4.148138     -0.134532     -0.274754
  C      -3.745444      0.319565      0.971465
  C      -2.460541      0.786438      1.145237
  C       3.033644      1.739880     -1.188226
  H       0.051549      1.440226      1.379427
  H       0.707450      0.709877     -1.554119
  H      -1.294833      0.316619     -2.007290
  H      -3.574694     -0.488031     -2.309971
  H      -5.158933     -0.492130     -0.418494
  H      -4.436104      0.311467      1.803027
  H      -2.143452      1.151126      2.113372
  H       2.733443      1.626193     -2.219960
  H       3.423017      1.772092      1.230177
  H       3.897371      2.350399     -0.979476
  Br     -0.432133      3.541532      0.042637
23
Coordinates from ORCA-job orca_input E -105.813643433229
  Br      0.944315     -1.215430     -0.011341
  C      -0.202864      1.260824      0.344725
  C       0.919967      0.723694     -0.495999
  C       2.273868      1.270106     -0.211012
  O       2.591398      1.319185      1.099439
  C      -1.563603      0.796777      0.083179
  C      -1.978576      0.328900     -1.160724
  C      -3.269052     -0.127859     -1.337671
  C      -4.158358     -0.135843     -0.274044
  C      -3.752895      0.315883      0.971522
  C      -2.466159      0.784355      1.145148
  C       3.041381      1.740654     -1.188400
  H       0.054783      1.436393      1.378643
  H       0.723376      0.702996     -1.558717
  H      -1.303909      0.328782     -2.004491
  H      -3.584378     -0.481037     -2.309639
  H      -5.168554     -0.495034     -0.417373
  H      -4.441472      0.304952      1.804937
  H      -2.147641      1.146532      2.113898
  H       2.743221      1.623365     -2.220223
  H       3.423427      1.782813      1.232622
  H       3.908665      2.348265     -0.979140
  Br     -0.434560      3.519538      0.033570
23
Coordinates from ORCA-job orca_input E -105.816756563109
  Br      0.949700     -1.212412      0.003363
  C      -0.202717      1.280378      0.339620
  C       0.926917      0.722468     -0.495161
  C       2.278895      1.273007     -0.213835
  O       2.589701      1.327250      1.100280
  C      -1.572584      0.804360      0.083680
  C      -1.985583      0.342606     -1.159924
  C      -3.275394     -0.121085     -1.337396
  C      -4.163080     -0.139903     -0.273526
  C      -3.755759      0.308551      0.972477
  C      -2.469445      0.782166      1.146397
  C       3.048248      1.737684     -1.190003
  H       0.057168      1.433714      1.376846
  H       0.733712      0.694553     -1.560092
  H      -1.311575      0.351392     -2.004517
  H      -3.589259     -0.470922     -2.311200
  H      -5.171474     -0.504137     -0.416268
  H      -4.441702      0.290641      1.808108
  H      -2.150553      1.140589      2.116518
  H       2.751962      1.616049     -2.221659
  H       3.420601      1.792784      1.234083
  H       3.921854      2.337973     -0.981857
  Br     -0.437252      3.491101      0.022974
23
Coordinates from ORCA-job orca_input E -105.820969201632
  Br      0.936221     -1.199605      0.028327
  C      -0.206029      1.317551      0.331003
  C       0.925940      0.726849     -0.492015
  C       2.279965      1.275857     -0.215646
  O       2.583787      1.336792      1.100933
  C      -1.580304      0.820067      0.082418
  C      -1.992396      0.365059     -1.161958
  C      -3.278622     -0.112546     -1.338407
  C      -4.162228     -0.150319     -0.272340
  C      -3.753334      0.293931      0.974652
  C      -2.470326      0.779196      1.147966
  C       3.056335      1.728025     -1.191836
  H       0.056508      1.435433      1.372792
  H       0.737594      0.688078     -1.558409
  H      -1.321463      0.389069     -2.008931
  H      -3.591100     -0.458306     -2.314270
  H      -5.166845     -0.525339     -0.413398
  H      -4.434903      0.262625      1.813648
  H      -2.151690      1.132506      2.120112
  H       2.762428      1.601359     -2.223489
  H       3.415975      1.799957      1.235336
  H       3.941367      2.313278     -0.986010
  Br     -0.434500      3.459294      0.008431
23
Coordinates from ORCA-job orca_input E -105.826161974033
  Br      0.905935     -1.171072      0.067388
  C      -0.214580      1.379196      0.314400
  C       0.917593      0.740667     -0.487426
  C       2.277257      1.282069     -0.216024
  O       2.569626      1.353113      1.103877
  C      -1.589931      0.844850      0.077428
  C      -2.004777      0.400481     -1.168715
  C      -3.283704     -0.100656     -1.340510
  C      -4.157197     -0.170588     -0.268138
  C      -3.744314      0.266184      0.980054
  C      -2.467792      0.771933      1.149535
  C       3.069759      1.708145     -1.191099
  H       0.048223      1.439467      1.362193
  H       0.737340      0.687736     -1.555087
  H      -1.342080      0.450391     -2.021264
  H      -3.596926     -0.439581     -2.318698
  H      -5.155293     -0.564134     -0.404638
  H      -4.416903      0.211424      1.825278
  H      -2.147528      1.116465      2.124375
  H       2.781204      1.574226     -2.223381
  H       3.406541      1.807219      1.240264
  H       3.976631      2.261859     -0.987553
  Br     -0.416704      3.429416     -0.023349
23
Coordinates from ORCA-job orca_input E -105.830222411631
  Br      0.894772     -1.128161      0.133678
  C      -0.226015      1.446933      0.282499
  C       0.911583      0.756274     -0.482928
  C       2.270046      1.304953     -0.213283
  O       2.534952      1.398426      1.114874
  C      -1.603280      0.864418      0.066941
  C      -2.033773      0.449379     -1.183441
  C      -3.305106     -0.075804     -1.344291
  C      -4.156418     -0.192690     -0.257924
  C      -3.728341      0.222790      0.992110
  C      -2.456886      0.747307      1.152412
  C       3.090944      1.683333     -1.182065
  H       0.028133      1.420223      1.335973
  H       0.743058      0.687747     -1.551618
  H      -1.388247      0.538949     -2.046322
  H      -3.628999     -0.396219     -2.325416
  H      -5.148043     -0.605141     -0.385044
  H      -4.383387      0.134283      1.848373
  H      -2.124640      1.069973      2.130787
  H       2.815173      1.533989     -2.215322
  H       3.376987      1.841054      1.257558
  H       4.037676      2.171870     -0.978984
  Br     -0.367810      3.404923     -0.109658
23
Coordinates from ORCA-job orca_input E -105.831740502503
  Br      0.868130     -1.088907      0.187050
  C      -0.232630      1.461019      0.259035
  C       0.888420      0.776741     -0.482301
  C       2.247655      1.317088     -0.195719
  O       2.498750      1.453313      1.127654
  C      -1.598421      0.874300      0.050555
  C      -2.055300      0.489353     -1.200952
  C      -3.320788     -0.049170     -1.350398
  C      -4.146993     -0.207571     -0.249532
  C      -3.698472      0.178952      1.002250
  C      -2.432411      0.718921      1.147536
  C       3.096456      1.644569     -1.162793
  H       0.002969      1.458659      1.317885
  H       0.722857      0.705634     -1.545560
  H      -1.430324      0.612474     -2.075272
  H      -3.662560     -0.346903     -2.332477
  H      -5.135774     -0.629805     -0.367466
  H      -4.334011      0.057497      1.868946
  H      -2.082792      1.017103      2.127740
  H       2.841703      1.467858     -2.197540
  H       3.355363      1.867096      1.266798
  H       4.044481      2.123952     -0.955240
  Br     -0.283928      3.376637     -0.201289
23
Coordinates from ORCA-job orca_input E -105.832549980128
  Br      0.974475     -1.125001      0.241781
  C      -0.228029      1.415767      0.273653
  C       0.925190      0.728496     -0.447108
  C       2.253730      1.352278     -0.201164
  O       2.487516      1.531496      1.120725
  C      -1.597772      0.834072      0.065158
  C      -2.062381      0.499802     -1.202037
  C      -3.337323     -0.007632     -1.362172
  C      -4.165586     -0.170827     -0.260773
  C      -3.711968      0.175589      1.000800
  C      -2.431943      0.677091      1.162673
  C       3.092519      1.664675     -1.178767
  H      -0.016463      1.431588      1.339322
  H       0.753050      0.644662     -1.512490
  H      -1.431524      0.635836     -2.070387
  H      -3.688182     -0.273419     -2.350109
  H      -5.164290     -0.566091     -0.387974
  H      -4.354119      0.053876      1.862446
  H      -2.075597      0.941577      2.149631
  H       2.816818      1.473493     -2.204300
  H       3.329930      1.978256      1.245379
  H       4.074393      2.084050     -0.988331
  Br     -0.290064      3.299177     -0.257045
23
Coordinates from ORCA-job orca_input E -105.833076734158
  Br      0.962323     -1.126288      0.221967
  C      -0.233284      1.431055      0.279406
  C       0.909225      0.736877     -0.447693
  C       2.248610      1.339247     -0.198670
  O       2.488908      1.516090      1.122257
  C      -1.599518      0.852942      0.065723
  C      -2.056437      0.503889     -1.198921
  C      -3.327106     -0.015604     -1.360777
  C      -4.156012     -0.185179     -0.261830
  C      -3.707014      0.167048      0.999203
  C      -2.432610      0.684195      1.161167
  C       3.085068      1.646468     -1.178540
  H      -0.019226      1.477669      1.341143
  H       0.731620      0.660929     -1.514607
  H      -1.425463      0.643152     -2.066577
  H      -3.673482     -0.287403     -2.348656
  H      -5.150315     -0.591191     -0.390237
  H      -4.348308      0.038099      1.860485
  H      -2.080397      0.955219      2.147966
  H       2.802187      1.463230     -2.204043
  H       3.338237      1.950546      1.246361
  H       4.059274      2.075942     -0.984069
  Br     -0.263902      3.341879     -0.252151
23
Coordinates from ORCA-job orca_input E -105.832996956221
  Br      0.920101     -1.104178      0.286375
  C      -0.232240      1.434261      0.277004
  C       0.897279      0.737187     -0.431860
  C       2.236609      1.341569     -0.187686
  O       2.482128      1.557502      1.124177
  C      -1.593743      0.862970      0.059747
  C      -2.062065      0.535322     -1.204939
  C      -3.330410      0.009767     -1.367044
  C      -4.147646     -0.191259     -0.265638
  C      -3.688079      0.136197      0.997489
  C      -2.416294      0.661614      1.156587
  C       3.070934      1.623445     -1.176772
  H      -0.022366      1.492520      1.338131
  H       0.719893      0.639217     -1.493611
  H      -1.441472      0.698990     -2.075722
  H      -3.684601     -0.242872     -2.357237
  H      -5.140033     -0.602241     -0.393772
  H      -4.319139     -0.017923      1.862210
  H      -2.055853      0.912695      2.145827
  H       2.785868      1.420504     -2.197734
  H       3.336592      1.983605      1.240857
  H       4.042253      2.058051     -0.986833
  Br     -0.205334      3.331869     -0.310643
23
Coordinates from ORCA-job orca_input E -105.832441241203
  Br      0.819537     -1.119154      0.260005
  C      -0.242423      1.454291      0.304833
  C       0.890580      0.744002     -0.399344
  C       2.250781      1.329342     -0.187254
  O       2.505102      1.572808      1.115155
  C      -1.597048      0.893668      0.071098
  C      -2.050676      0.559258     -1.198904
  C      -3.308951      0.014271     -1.370968
  C      -4.128547     -0.208692     -0.275142
  C      -3.682403      0.117219      0.992859
  C      -2.422226      0.666502      1.162637
  C       3.083412      1.590022     -1.193664
  H      -0.021393      1.531039      1.361219
  H       0.710276      0.633047     -1.462291
  H      -1.428964      0.737746     -2.065269
  H      -3.653816     -0.238530     -2.364342
  H      -5.113087     -0.635228     -0.412237
  H      -4.314926     -0.056376      1.852777
  H      -2.072966      0.919523      2.155277
  H       2.786703      1.371532     -2.208964
  H       3.363185      1.996909      1.213282
  H       4.054204      2.038186     -1.017442
  Br     -0.273974      3.367426     -0.294413
23
Coordinates from ORCA-job orca_input E -105.833208547562
  Br      0.951720     -1.128450      0.239247
  C      -0.245130      1.457492      0.287726
  C       0.899526      0.736217     -0.417672
  C       2.249901      1.332407     -0.192409
  O       2.491865      1.551308      1.121761
  C      -1.608046      0.883269      0.066911
  C      -2.067177      0.551828     -1.203529
  C      -3.326726      0.008169     -1.367608
  C      -4.143258     -0.206333     -0.266201
  C      -3.694315      0.129202      0.999241
  C      -2.431572      0.673837      1.163955
  C       3.090414      1.601684     -1.182905
  H      -0.031411      1.535254      1.347913
  H       0.721160      0.645901     -1.483189
  H      -1.446999      0.726106     -2.072542
  H      -3.675108     -0.248679     -2.358750
  H      -5.129142     -0.631311     -0.397418
  H      -4.326017     -0.034104      1.861762
  H      -2.079589      0.932455      2.154085
  H       2.797579      1.401225     -2.202152
  H       3.345624      1.980093      1.233754
  H       4.067538      2.029094     -0.993943
  Br     -0.258456      3.352146     -0.299130
23
Coordinates from ORCA-job orca_input E -105.833424293221
  Br      0.916512     -1.107514      0.272878
  C      -0.241858      1.459752      0.279814
  C       0.894999      0.743418     -0.419235
  C       2.241721      1.338476     -0.187247
  O       2.484645      1.569474      1.123689
  C      -1.602741      0.879063      0.062140
  C      -2.070015      0.558367     -1.205575
  C      -3.331337      0.017044     -1.368265
  C      -4.142400     -0.206324     -0.265757
  C      -3.684535      0.117303      0.999070
  C      -2.419294      0.658262      1.159966
  C       3.084076      1.596684     -1.177823
  H      -0.031320      1.533107      1.340677
  H       0.718536      0.644020     -1.482590
  H      -1.454576      0.739909     -2.076754
  H      -3.685006     -0.230836     -2.359858
  H      -5.129138     -0.630152     -0.395036
  H      -4.310835     -0.052812      1.864243
  H      -2.060404      0.907071      2.150256
  H       2.799150      1.384375     -2.197078
  H       3.342251      1.990070      1.237099
  H       4.060440      2.023892     -0.989899
  Br     -0.226490      3.346161     -0.325806
23
Coordinates from ORCA-job orca_input E -105.833464019845
  Br      0.917670     -1.112355      0.277628
  C      -0.242591      1.459387      0.283920
  C       0.895551      0.739856     -0.412473
  C       2.243473      1.335961     -0.186733
  O       2.486299      1.576763      1.122449
  C      -1.603253      0.882042      0.064351
  C      -2.069370      0.565270     -1.205414
  C      -3.329717      0.022859     -1.370125
  C      -4.140465     -0.205993     -0.268155
  C      -3.683488      0.112999      0.998303
  C      -2.419557      0.655920      1.161848
  C       3.083330      1.590956     -1.180395
  H      -0.030368      1.540761      1.343759
  H       0.717717      0.635232     -1.475599
  H      -1.453749      0.750684     -2.075511
  H      -3.683015     -0.221633     -2.362675
  H      -5.126674     -0.630392     -0.399336
  H      -4.309704     -0.061545      1.862638
  H      -2.061539      0.901684      2.153151
  H       2.796094      1.373654     -2.197841
  H       3.343794      1.998504      1.232107
  H       4.057251      2.024172     -0.994892
  Br     -0.235307      3.344026     -0.332096
23
Coordinates from ORCA-job orca_input E -105.833479722828
  Br      0.911937     -1.110230      0.280190
  C      -0.244930      1.466991      0.283079
  C       0.893606      0.742426     -0.409343
  C       2.242930      1.336249     -0.185577
  O       2.483930      1.584387      1.122442
  C      -1.605130      0.886860      0.064291
  C      -2.072566      0.574466     -1.206156
  C      -3.330818      0.027234     -1.370678
  C      -4.138168     -0.210532     -0.268001
  C      -3.679956      0.104566      0.998946
  C      -2.418024      0.652330      1.162478
  C       3.086336      1.581633     -1.179227
  H      -0.033201      1.553768      1.342578
  H       0.716033      0.635668     -1.472566
  H      -1.459357      0.766696     -2.076490
  H      -3.685184     -0.213972     -2.363655
  H      -5.122800     -0.638571     -0.399148
  H      -4.303539     -0.076644      1.863820
  H      -2.058993      0.895056      2.154139
  H       2.801417      1.358451     -2.196064
  H       3.343646      2.001676      1.231562
  H       4.061599      2.013052     -0.994406
  Br     -0.236391      3.347250     -0.343304
23
Coordinates from ORCA-job orca_input E -105.833495669885
  Br      0.906584     -1.105982      0.291024
  C      -0.247035      1.475617      0.280468
  C       0.891733      0.744666     -0.405324
  C       2.241457      1.336560     -0.183258
  O       2.478262      1.599495      1.122706
  C      -1.606888      0.891785      0.063846
  C      -2.077615      0.588914     -1.207651
  C      -3.333779      0.036942     -1.371907
  C      -4.135380     -0.214719     -0.267984
  C      -3.673550      0.091336      0.999848
  C      -2.413595      0.643895      1.163376
  C       3.088724      1.568076     -1.176434
  H      -0.035912      1.572010      1.339351
  H       0.714527      0.631994     -1.468056
  H      -1.468152      0.791809     -2.078236
  H      -3.690976     -0.196896     -2.365641
  H      -5.118454     -0.646349     -0.398986
  H      -4.292636     -0.100330      1.865701
  H      -2.051698      0.879571      2.155647
  H       2.808697      1.332791     -2.191871
  H       3.341537      2.009410      1.231453
  H       4.063292      2.001127     -0.992839
  Br     -0.236766      3.347088     -0.366325
23
Coordinates from ORCA-job orca_input E -105.833503893643
  Br      0.903281     -1.102696      0.293328
  C      -0.248206      1.480154      0.277481
  C       0.890374      0.747127     -0.405906
  C       2.240210      1.337692     -0.182112
  O       2.473869      1.605855      1.123289
  C      -1.607825      0.894148      0.062682
  C      -2.080997      0.594836     -1.208660
  C      -3.336179      0.040284     -1.371789
  C      -4.134340     -0.217335     -0.266770
  C      -3.670062      0.085359      1.000905
  C      -2.410990      0.640449      1.163278
  C       3.091470      1.562110     -1.173448
  H      -0.037904      1.580032      1.336172
  H       0.713978      0.633604     -1.468561
  H      -1.473895      0.802437     -2.079810
  H      -3.695332     -0.190796     -2.365466
  H      -5.116671     -0.650961     -0.396821
  H      -4.286485     -0.110879      1.867641
  H      -2.047052      0.873344      2.155448
  H       2.815520      1.321116     -2.188679
  H       3.339617      2.010097      1.233561
  H       4.066449      1.994188     -0.989404
  Br     -0.236451      3.348645     -0.377448
23
Coordinates from ORCA-job orca_input E -105.833507351039
  Br      0.902344     -1.101045      0.293478
  C      -0.248374      1.481428      0.275374
  C       0.890183      0.748274     -0.407710
  C       2.239633      1.338516     -0.181797
  O       2.470267      1.608993      1.123701
  C      -1.607938      0.894448      0.061863
  C      -2.082524      0.596490     -1.209216
  C      -3.337635      0.041498     -1.371482
  C      -4.134183     -0.217884     -0.265720
  C      -3.668371      0.083357      1.001703
  C      -2.409311      0.638837      1.163199
  C       3.093124      1.560341     -1.171465
  H      -0.038715      1.582721      1.334062
  H       0.714502      0.634906     -1.470473
  H      -1.476367      0.805613     -2.080682
  H      -3.698028     -0.188466     -2.364967
  H      -5.116490     -0.651814     -0.394985
  H      -4.283595     -0.114317      1.868968
  H      -2.044111      0.870533      2.155184
  H       2.819713      1.316201     -2.186650
  H       3.337833      2.008811      1.235789
  H       4.067961      1.992181     -0.986716
  Br     -0.237537      3.349189     -0.382548
23
Coordinates from ORCA-job orca_input E -105.833506482010
  Br      0.902123     -1.100150      0.291163
  C      -0.248446      1.481693      0.273869
  C       0.890015      0.749245     -0.409934
  C       2.239343      1.339225     -0.181851
  O       2.467631      1.610106      1.123939
  C      -1.607929      0.894621      0.061123
  C      -2.083366      0.596370     -1.209596
  C      -3.338464      0.041140     -1.371018
  C      -4.134198     -0.218235     -0.264661
  C      -3.667622      0.083223      1.002408
  C      -2.408562      0.638977      1.163013
  C       3.094756      1.560190     -1.170018
  H      -0.039165      1.582970      1.332580
  H       0.715035      0.637109     -1.472906
  H      -1.477648      0.805538     -2.081359
  H      -3.699555     -0.189060     -2.364191
  H      -5.116537     -0.652326     -0.393176
  H      -4.282302     -0.114523      1.870043
  H      -2.042721      0.870791      2.154740
  H       2.822881      1.314642     -2.185280
  H       3.336864      2.005728      1.237996
  H       4.069656      1.991457     -0.984254
  Br     -0.239410      3.350079     -0.383720
23
Coordinates from ORCA-job orca_input E -105.833509208841
  Br      0.902491     -1.100131      0.288676
  C      -0.248321      1.481173      0.273614
  C       0.890160      0.749630     -0.411317
  C       2.239408      1.339682     -0.182261
  O       2.466532      1.610242      1.123780
  C      -1.607750      0.894286      0.060961
  C      -2.083117      0.594964     -1.209567
  C      -3.338378      0.040067     -1.370718
  C      -4.134377     -0.218024     -0.264231
  C      -3.667892      0.084349      1.002656
  C      -2.408661      0.639797      1.162959
  C       3.095346      1.561227     -1.169832
  H      -0.039117      1.581672      1.332396
  H       0.715529      0.638675     -1.474522
  H      -1.477124      0.803182     -2.081372
  H      -3.699454     -0.190939     -2.363708
  H      -5.116863     -0.651858     -0.392490
  H      -4.282815     -0.112475      1.870327
  H      -2.042931      0.872382      2.154549
  H       2.823459      1.315610     -2.185070
  H       3.337006      2.002717      1.239192
  H       4.070309      1.991998     -0.983352
  Br     -0.241061      3.350584     -0.381761
