25
Coordinates from ORCA-job orca_input E -10758.560653617109
  Br      1.735360     -0.492360     -1.066040
  C      -0.195180      0.114520      0.387770
  C       0.914810      1.154570     -0.338090
  C       1.911250      1.952510      0.428510
  O       2.375650      1.295890      1.511910
  C      -1.318080      0.204300      1.177930
  C      -2.191480      1.323570      1.164720
  C      -3.278430      1.341560      1.989280
  C      -3.519220      0.259670      2.838010
  C      -2.681990     -0.849940      2.871630
  C      -1.590230     -0.883990      2.048270
  C       2.249120      3.175570      0.048020
  H       0.515480     -1.086360      0.431860
  H       0.551810      1.709280     -1.191550
  H      -2.003310      2.157100      0.505350
  H      -3.951540      2.186000      1.990060
  H      -4.383870      0.286900      3.488100
  H      -2.895430     -1.671590      3.538900
  H      -0.921350     -1.733940      2.048630
  H       1.813450      3.606140     -0.840450
  H       3.017670      1.831850      1.988270
  H       2.962970      3.759590      0.613400
  Br     -1.057710     -0.460160     -1.269700
  Br      0.789260     -2.185870     -2.584570
  Br      1.817170     -4.275580     -3.723470
25
Coordinates from ORCA-job orca_input E -10758.610711237407
  Br      1.830940     -0.491593     -1.148899
  C      -0.180146      0.067432      0.370485
  C       0.910156      1.103652     -0.359284
  C       1.872813      1.909357      0.433085
  O       2.348776      1.239182      1.508422
  C      -1.324070      0.189691      1.194990
  C      -2.181931      1.314837      1.159382
  C      -3.269518      1.375869      1.998039
  C      -3.522128      0.327607      2.883625
  C      -2.693119     -0.788589      2.938226
  C      -1.601861     -0.861173      2.100787
  C       2.181745      3.156110      0.080337
  H       0.494020     -1.060784      0.463806
  H       0.521530      1.669536     -1.197863
  H      -1.985526      2.126057      0.469552
  H      -3.930928      2.232566      1.976272
  H      -4.381755      0.385905      3.541937
  H      -2.907686     -1.590060      3.633306
  H      -0.941334     -1.720213      2.121617
  H       1.741166      3.595259     -0.803591
  H       2.973301      1.785108      2.002049
  H       2.876154      3.748060      0.664947
  Br     -1.008448     -0.537776     -1.340035
  Br      0.896390     -2.209476     -2.721434
  Br      1.947642     -4.247336     -3.913008
25
Coordinates from ORCA-job orca_input E -10758.649465067065
  Br      1.899244     -0.488684     -1.207222
  C      -0.160233      0.021175      0.345822
  C       0.892914      1.055953     -0.372477
  C       1.817074      1.868275      0.450173
  O       2.300199      1.185724      1.518946
  C      -1.312996      0.176430      1.199648
  C      -2.151608      1.306700      1.140926
  C      -3.236049      1.410019      1.992173
  C      -3.497755      0.394391      2.912024
  C      -2.677774     -0.728626      2.985101
  C      -1.591022     -0.838908      2.134291
  C       2.096234      3.136535      0.130187
  H       0.466905     -1.017754      0.476956
  H       0.482624      1.627441     -1.198916
  H      -1.947898      2.094412      0.422629
  H      -3.884652      2.277850      1.948941
  H      -4.350246      0.482623      3.578309
  H      -2.891537     -1.510355      3.705233
  H      -0.939696     -1.706512      2.173329
  H       1.654826      3.584600     -0.750263
  H       2.902276      1.741849      2.031895
  H       2.766210      3.734833      0.738775
  Br     -0.978782     -0.614280     -1.399287
  Br      0.976975     -2.238912     -2.836272
  Br      2.030945     -4.235549     -4.064171
25
Coordinates from ORCA-job orca_input E -10758.689123128423
  Br      1.982834     -0.466872     -1.288577
  C      -0.136303     -0.056216      0.302808
  C       0.854203      0.980894     -0.383349
  C       1.714293      1.804587      0.489257
  O       2.208758      1.104972      1.545283
  C      -1.281324      0.158712      1.191260
  C      -2.088610      1.301087      1.097272
  C      -3.157142      1.470367      1.966356
  C      -3.426508      0.504767      2.936731
  C      -2.626419     -0.631553      3.038794
  C      -1.556308     -0.804682      2.169876
  C       1.938218      3.099796      0.226998
  H       0.429919     -0.980105      0.483711
  H       0.413110      1.559928     -1.189158
  H      -1.878242      2.049846      0.337886
  H      -3.784126      2.353437      1.893112
  H      -4.263055      0.641253      3.615860
  H      -2.838606     -1.379222      3.796439
  H      -0.923926     -1.686042      2.236618
  H       1.495285      3.561174     -0.646703
  H       2.769164      1.675271      2.090304
  H       2.562949      3.705801      0.876166
  Br     -0.961097     -0.750433     -1.466365
  Br      1.083254     -2.286616     -2.994913
  Br      2.135857     -4.210922     -4.268914
25
Coordinates from ORCA-job orca_input E -10758.723611515887
  Br      2.079224     -0.380167     -1.413818
  C      -0.125879     -0.181397      0.221000
  C       0.782717      0.868905     -0.400837
  C       1.532264      1.701708      0.558656
  O       2.039404      0.974617      1.592569
  C      -1.226347      0.139575      1.155709
  C      -1.982477      1.306263      1.016077
  C      -3.005104      1.581797      1.916582
  C      -3.274226      0.695552      2.960469
  C      -2.516117     -0.465948      3.101759
  C      -1.491161     -0.744219      2.202458
  C       1.656816      3.026515      0.395854
  H       0.442966     -1.070558      0.495558
  H       0.300260      1.463644     -1.171370
  H      -1.772899      1.991759      0.197946
  H      -3.594317      2.487632      1.806133
  H      -4.073541      0.912173      3.663448
  H      -2.722243     -1.155489      3.915311
  H      -0.895562     -1.648188      2.305958
  H       1.214382      3.510096     -0.466509
  H       2.523017      1.556309      2.196324
  H       2.196948      3.635184      1.115377
  Br     -0.969577     -0.989510     -1.542707
  Br      1.246914     -2.352736     -3.218283
  Br      2.300719     -4.144287     -4.546914
25
Coordinates from ORCA-job orca_input E -10758.740881494783
  Br      2.138784     -0.252551     -1.493469
  C      -0.129181     -0.298568      0.169528
  C       0.738199      0.794113     -0.411915
  C       1.406991      1.628103      0.613125
  O       1.932646      0.880001      1.622691
  C      -1.186110      0.108694      1.121533
  C      -1.906860      1.293127      0.937020
  C      -2.882502      1.658477      1.855639
  C      -3.142751      0.845290      2.959560
  C      -2.422907     -0.333985      3.143556
  C      -1.444724     -0.705053      2.227290
  C       1.438453      2.963342      0.532827
  H       0.443423     -1.157202      0.511200
  H       0.232729      1.403795     -1.158217
  H      -1.708196      1.920127      0.072061
  H      -3.442948      2.577264      1.710476
  H      -3.907350      1.131660      3.675712
  H      -2.622146     -0.966692      4.003539
  H      -0.880441     -1.623127      2.367758
  H       0.987433      3.464497     -0.314795
  H       2.353704      1.460674      2.272133
  H       1.905995      3.564895      1.306718
  Br     -0.986868     -1.189375     -1.549419
  Br      1.372778     -2.386980     -3.366286
  Br      2.378031     -4.061295     -4.751515
25
Coordinates from ORCA-job orca_input E -10758.749209847509
  Br      2.176816     -0.119938     -1.531568
  C      -0.128937     -0.359038      0.155685
  C       0.729228      0.764155     -0.407812
  C       1.371058      1.589671      0.651442
  O       1.922040      0.821078      1.631292
  C      -1.175548      0.091981      1.099541
  C      -1.910705      1.262641      0.870459
  C      -2.864254      1.672537      1.791601
  C      -3.094436      0.919190      2.942802
  C      -2.370151     -0.248426      3.170250
  C      -1.415039     -0.665733      2.250923
  C       1.357881      2.924782      0.622728
  H       0.457957     -1.189747      0.548260
  H       0.208430      1.390299     -1.129410
  H      -1.744001      1.843576     -0.030952
  H      -3.432466      2.580066      1.611137
  H      -3.842664      1.241371      3.661067
  H      -2.548136     -0.836222      4.065888
  H      -0.846283     -1.574453      2.428082
  H       0.891821      3.442785     -0.206421
  H       2.321880      1.390118      2.303832
  H       1.801677      3.511194      1.421583
  Br     -1.005658     -1.296442     -1.498336
  Br      1.449862     -2.403406     -3.452315
  Br      2.355810     -4.032809     -4.913009
25
Coordinates from ORCA-job orca_input E -10758.753350386794
  Br      2.218546     -0.014001     -1.542303
  C      -0.120553     -0.373301      0.142641
  C       0.739967      0.755378     -0.402645
  C       1.371000      1.564614      0.683369
  O       1.935983      0.773730      1.637473
  C      -1.173259      0.095716      1.080498
  C      -1.949419      1.232673      0.817187
  C      -2.900899      1.653987      1.735913
  C      -3.091939      0.946754      2.922501
  C      -2.331311     -0.188749      3.185916
  C      -1.378376     -0.615674      2.267767
  C       1.341181      2.898894      0.692415
  H       0.480669     -1.169637      0.572227
  H       0.207879      1.397953     -1.101378
  H      -1.822246      1.779680     -0.111949
  H      -3.499041      2.535726      1.525621
  H      -3.837580      1.279065      3.639266
  H      -2.478744     -0.743971      4.107684
  H      -0.780984     -1.500014      2.474133
  H       0.864771      3.434888     -0.119441
  H       2.329430      1.326677      2.327306
  H       1.781981      3.467709      1.505691
  Br     -1.016355     -1.330353     -1.444699
  Br      1.510755     -2.427711     -3.504957
  Br      2.264724     -4.060805     -5.033485
25
Coordinates from ORCA-job orca_input E -10758.754773247245
  Br      2.259587      0.042106     -1.538592
  C      -0.114646     -0.373687      0.128920
  C       0.757354      0.756719     -0.400614
  C       1.376258      1.551017      0.707019
  O       1.948739      0.745796      1.644562
  C      -1.171971      0.103909      1.069476
  C      -1.979971      1.210239      0.782943
  C      -2.936746      1.631873      1.697064
  C      -3.100920      0.955334      2.905520
  C      -2.304638     -0.148978      3.194715
  C      -1.345110     -0.572565      2.280410
  C       1.332728      2.884588      0.743064
  H       0.497164     -1.154878      0.586033
  H       0.220355      1.412021     -1.084493
  H      -1.875465      1.736986     -0.161753
  H      -3.559713      2.491124      1.466110
  H      -3.850179      1.287974      3.618380
  H      -2.428593     -0.682332      4.132756
  H      -0.720046     -1.433102      2.506382
  H       0.848585      3.432296     -0.056302
  H       2.335637      1.287697      2.346830
  H       1.771291      3.441230      1.566056
  Br     -1.019375     -1.330180     -1.413157
  Br      1.563529     -2.454800     -3.542560
  Br      2.162325     -4.101159     -5.122018
25
Coordinates from ORCA-job orca_input E -10758.755165634371
  Br      2.285154      0.050162     -1.519157
  C      -0.115671     -0.377397      0.118003
  C       0.763833      0.755781     -0.396080
  C       1.373784      1.541013      0.722843
  O       1.946157      0.730486      1.655649
  C      -1.174406      0.104335      1.064627
  C      -2.000292      1.191241      0.761665
  C      -2.954969      1.619437      1.675765
  C      -3.098535      0.967318      2.900391
  C      -2.282562     -0.118599      3.205306
  C      -1.324643     -0.547642      2.290777
  C       1.323339      2.874396      0.771086
  H       0.491346     -1.149745      0.582113
  H       0.231044      1.416949     -1.078250
  H      -1.910279      1.700036     -0.194772
  H      -3.591875      2.464918      1.431957
  H      -3.846566      1.304210      3.612468
  H      -2.389305     -0.633613      4.155685
  H      -0.683382     -1.392831      2.529137
  H       0.839357      3.427154     -0.024829
  H       2.327463      1.268437      2.364063
  H       1.756648      3.425545      1.600596
  Br     -1.016204     -1.322614     -1.414553
  Br      1.605436     -2.468986     -3.573059
  Br      2.111308     -4.110762     -5.184682
25
Coordinates from ORCA-job orca_input E -10758.755457045700
  Br      2.303677      0.036632     -1.493830
  C      -0.120803     -0.381505      0.110713
  C       0.767388      0.753795     -0.388063
  C       1.370149      1.530932      0.738180
  O       1.936745      0.717645      1.671573
  C      -1.180134      0.102205      1.062950
  C      -2.023433      1.169266      0.742023
  C      -2.973936      1.606601      1.656512
  C      -3.094275      0.981992      2.898064
  C      -2.259220     -0.084882      3.219275
  C      -1.305069     -0.523022      2.304513
  C       1.318495      2.864540      0.792223
  H       0.482106     -1.160987      0.579065
  H       0.243002      1.419589     -1.072253
  H      -1.948545      1.655507     -0.227540
  H      -3.625159      2.437244      1.399769
  H      -3.839409      1.325158      3.610066
  H      -2.347768     -0.578419      4.182851
  H      -0.647907     -1.352043      2.555526
  H       0.840259      3.420767     -0.004664
  H       2.313206      1.253730      2.383914
  H       1.745857      3.412091      1.627203
  Br     -1.013686     -1.306290     -1.428667
  Br      1.646947     -2.476458     -3.609122
  Br      2.077693     -4.104857     -5.253530
25
Coordinates from ORCA-job orca_input E -10758.755723856137
  Br      2.317176      0.000208     -1.456269
  C      -0.127425     -0.390353      0.109033
  C       0.769391      0.745539     -0.372837
  C       1.365730      1.516906      0.757490
  O       1.921637      0.703892      1.696762
  C      -1.187076      0.095842      1.064356
  C      -2.052276      1.137460      0.718668
  C      -2.996802      1.589265      1.632137
  C      -3.087239      1.003682      2.895180
  C      -2.229479     -0.037722      3.239217
  C      -1.280742     -0.491526      2.326115
  C       1.315709      2.851014      0.811793
  H       0.462550     -1.180279      0.571537
  H       0.258869      1.414077     -1.064517
  H      -1.996732      1.589821     -0.268336
  H      -3.666366      2.399488      1.358056
  H      -3.828151      1.357317      3.606383
  H      -2.296364     -0.500327      4.219740
  H      -0.605393     -1.299783      2.594554
  H       0.848294      3.408681      0.009596
  H       2.292370      1.240484      2.411621
  H       1.734220      3.397282      1.652051
  Br     -1.009212     -1.284892     -1.450298
  Br      1.697161     -2.475855     -3.658875
  Br      2.046330     -4.070990     -5.346407
25
Coordinates from ORCA-job orca_input E -10758.755857310509
  Br      2.316441     -0.030178     -1.435650
  C      -0.131896     -0.398682      0.115046
  C       0.770001      0.734777     -0.361231
  C       1.363829      1.507088      0.768390
  O       1.915253      0.696546      1.712041
  C      -1.190351      0.091258      1.066922
  C      -2.067704      1.118443      0.706183
  C      -3.008909      1.580168      1.617372
  C      -3.083169      1.019279      2.892694
  C      -2.213375     -0.006453      3.251714
  C      -1.267464     -0.470991      2.341227
  C       1.313398      2.841297      0.819706
  H       0.451116     -1.198895      0.572450
  H       0.267426      1.402711     -1.058988
  H      -2.022427      1.548938     -0.290824
  H      -3.688782      2.377912      1.332558
  H      -3.821830      1.380346      3.602520
  H      -2.269319     -0.449172      4.242012
  H      -0.583079     -1.267465      2.620888
  H       0.851245      3.397460      0.013462
  H       2.282612      1.234787      2.427321
  H       1.726541      3.389254      1.661484
  Br     -1.007375     -1.277556     -1.458861
  Br      1.726966     -2.465610     -3.691199
  Br      2.037035     -4.036032     -5.410487
25
Coordinates from ORCA-job orca_input E -10758.755985094842
  Br      2.308718     -0.061601     -1.419941
  C      -0.136975     -0.411302      0.127754
  C       0.769518      0.717760     -0.349781
  C       1.363518      1.495776      0.775714
  O       1.915830      0.689439      1.722347
  C      -1.193647      0.085692      1.070998
  C      -2.079912      1.101539      0.696835
  C      -3.017745      1.574827      1.604600
  C      -3.080286      1.037515      2.890766
  C      -2.202770      0.024238      3.264099
  C      -1.260106     -0.452505      2.356731
  C       1.310529      2.829869      0.821743
  H       0.440471     -1.217725      0.581657
  H       0.271748      1.382671     -1.053784
  H      -2.042109      1.512037     -0.308683
  H      -3.704750      2.362600      1.309571
  H      -3.816653      1.407475      3.598471
  H      -2.251035     -0.399713      4.262937
  H      -0.570385     -1.240316      2.647223
  H       0.849073      3.382198      0.012478
  H       2.281300      1.230249      2.436639
  H       1.720580      3.381807      1.662406
  Br     -1.006172     -1.284896     -1.457148
  Br      1.757702     -2.443974     -3.722860
  Br      2.039738     -3.984431     -5.474022
25
Coordinates from ORCA-job orca_input E -10758.756138749235
  Br      2.297043     -0.100564     -1.404596
  C      -0.143171     -0.432821      0.149422
  C       0.768252      0.688541     -0.336635
  C       1.362854      1.476986      0.782148
  O       1.919451      0.677047      1.731851
  C      -1.197562      0.077936      1.078482
  C      -2.092805      1.080215      0.686600
  C      -3.026702      1.570999      1.588097
  C      -3.077532      1.066117      2.888023
  C      -2.192777      0.067170      3.280735
  C      -1.254539     -0.427649      2.378547
  C       1.304883      2.810811      0.820144
  H       0.431098     -1.240117      0.606137
  H       0.271529      1.347750     -1.046889
  H      -2.063402      1.464652     -0.329442
  H      -3.720645      2.346961      1.278512
  H      -3.810981      1.449915      3.591461
  H      -2.232825     -0.331636      4.290195
  H      -0.559996     -1.205501      2.684072
  H       0.840752      3.356663      0.008001
  H       2.282780      1.221718      2.444336
  H       1.712770      3.369274      1.657550
  Br     -1.004136     -1.315468     -1.440183
  Br      1.802631     -2.401582     -3.766729
  Br      2.049210     -3.898184     -5.563087
25
Coordinates from ORCA-job orca_input E -10758.756316585783
  Br      2.283072     -0.145558     -1.391865
  C      -0.149235     -0.462802      0.181842
  C       0.765907      0.648413     -0.323493
  C       1.364658      1.451967      0.784026
  O       1.929785      0.661130      1.736699
  C      -1.202770      0.067823      1.091943
  C      -2.104829      1.055628      0.677995
  C      -3.036078      1.568478      1.569183
  C      -3.079172      1.101766      2.883755
  C      -2.189409      0.117247      3.300366
  C      -1.254683     -0.399804      2.407098
  C       1.301881      2.785565      0.809909
  H       0.425598     -1.262490      0.650341
  H       0.264480      1.298910     -1.038872
  H      -2.082152      1.410730     -0.349006
  H      -3.734919      2.332227      1.240842
  H      -3.810536      1.503251      3.579512
  H      -2.223404     -0.252733      4.320941
  H      -0.557067     -1.167346      2.731513
  H       0.830702      3.322146     -0.004358
  H       2.293372      1.211559      2.444703
  H       1.711677      3.353190      1.640221
  Br     -1.000402     -1.374685     -1.401566
  Br      1.857590     -2.332911     -3.817440
  Br      2.062113     -3.772473     -5.667537
25
Coordinates from ORCA-job orca_input E -10758.756537683425
  Br      2.272005     -0.173426     -1.393330
  C      -0.151373     -0.485464      0.210066
  C       0.761703      0.616911     -0.320362
  C       1.367407      1.433980      0.775293
  O       1.939874      0.650988      1.730581
  C      -1.206049      0.062059      1.106162
  C      -2.105176      1.046593      0.679058
  C      -3.037377      1.573044      1.561514
  C      -3.085862      1.124059      2.882085
  C      -2.199682      0.141922      3.312827
  C      -1.264692     -0.388028      2.427573
  C       1.304510      2.767659      0.788982
  H       0.429927     -1.268963      0.696161
  H       0.249955      1.258854     -1.036594
  H      -2.080899      1.389744     -0.352207
  H      -3.733250      2.334339      1.221246
  H      -3.817787      1.536686      3.570697
  H      -2.236556     -0.215599      4.337746
  H      -0.570304     -1.153831      2.763436
  H       0.825653      3.296270     -0.026033
  H       2.307104      1.206720      2.432630
  H       1.720806      3.343047      1.610728
  Br     -0.995721     -1.441421     -1.353645
  Br      1.893712     -2.267968     -3.841548
  Br      2.078252     -3.668944     -5.726315
25
Coordinates from ORCA-job orca_input E -10758.756903106176
  Br      2.262568     -0.210393     -1.399843
  C      -0.150532     -0.513948      0.250276
  C       0.754282      0.576151     -0.320713
  C       1.374565      1.410821      0.754981
  O       1.953385      0.640254      1.717066
  C      -1.209986      0.056354      1.131656
  C      -2.099329      1.040012      0.686078
  C      -3.038671      1.579680      1.554214
  C      -3.104410      1.145269      2.878750
  C      -2.226457      0.162695      3.327906
  C      -1.285114     -0.379333      2.457031
  C       1.319601      2.745159      0.746554
  H       0.443304     -1.265878      0.767554
  H       0.225925      1.205687     -1.036398
  H      -2.065848      1.375335     -0.347864
  H      -3.726366      2.341198      1.197857
  H      -3.841430      1.568965      3.555014
  H      -2.273757     -0.185050      4.355811
  H      -0.596990     -1.144482      2.807659
  H       0.832420      3.262343     -0.070894
  H       2.330703      1.205081      2.406508
  H       1.749664      3.331647      1.553291
  Br     -0.986860     -1.543378     -1.268982
  Br      1.937618     -2.166302     -3.858606
  Br      2.087896     -3.518655     -5.788155
25
Coordinates from ORCA-job orca_input E -10758.757164475393
  Br      2.264207     -0.249990     -1.392850
  C      -0.149431     -0.536176      0.278153
  C       0.747731      0.545946     -0.318730
  C       1.378769      1.392691      0.740247
  O       1.955021      0.635429      1.714215
  C      -1.213209      0.050701      1.153790
  C      -2.094797      1.032016      0.690844
  C      -3.040795      1.581325      1.547086
  C      -3.119134      1.158417      2.874348
  C      -2.246228      0.177895      3.339334
  C      -1.298192     -0.373467      2.481711
  C       1.335521      2.727668      0.708084
  H       0.450873     -1.265123      0.819633
  H       0.214217      1.165605     -1.039121
  H      -2.053339      1.360090     -0.345141
  H      -3.722789      2.341769      1.177516
  H      -3.861102      1.589734      3.540245
  H      -2.301582     -0.160872      4.369893
  H      -0.613254     -1.135696      2.844648
  H       0.849233      3.234162     -0.116608
  H       2.341350      1.210130      2.390417
  H       1.774324      3.324493      1.502435
  Br     -0.981452     -1.614500     -1.202846
  Br      1.970973     -2.081965     -3.864745
  Br      2.079265     -3.391052     -5.835806
25
Coordinates from ORCA-job orca_input E -10758.757369563329
  Br      2.274773     -0.295447     -1.367963
  C      -0.149645     -0.554957      0.294618
  C       0.742800      0.523240     -0.312737
  C       1.378005      1.380036      0.732843
  O       1.943823      0.638404      1.724091
  C      -1.216057      0.042959      1.170214
  C      -2.092325      1.021520      0.692638
  C      -3.041014      1.580253      1.540809
  C      -3.124782      1.168130      2.870800
  C      -2.255355      0.190430      3.348032
  C      -1.303917     -0.370757      2.500430
  C       1.347201      2.715116      0.674520
  H       0.449499     -1.273699      0.851580
  H       0.216748      1.133519     -1.045905
  H      -2.046125      1.340535     -0.345711
  H      -3.719550      2.339125      1.161754
  H      -3.868786      1.606304      3.529922
  H      -2.315268     -0.138838      4.381456
  H      -0.620757     -1.129807      2.872656
  H       0.870263      3.209711     -0.162779
  H       2.335743      1.224114      2.387473
  H       1.787730      3.323315      1.459186
  Br     -0.984109     -1.654021     -1.162064
  Br      1.992761     -2.018686     -3.863778
  Br      2.064523     -3.281268     -5.875337
25
Coordinates from ORCA-job orca_input E -10758.757539546406
  Br      2.289009     -0.351863     -1.328472
  C      -0.149696     -0.573850      0.307591
  C       0.741587      0.500304     -0.303007
  C       1.373265      1.370907      0.730147
  O       1.923961      0.648735      1.743173
  C      -1.216338      0.033185      1.182314
  C      -2.088243      1.010058      0.692656
  C      -3.036616      1.579148      1.534430
  C      -3.122346      1.177926      2.867449
  C      -2.256819      0.202581      3.355028
  C      -1.304762     -0.369635      2.515264
  C       1.351871      2.704973      0.642187
  H       0.442831     -1.292586      0.873056
  H       0.230618      1.097960     -1.056265
  H      -2.038711      1.318380     -0.348431
  H      -3.712439      2.336678      1.148079
  H      -3.866061      1.623560      3.521953
  H      -2.320134     -0.116716      4.391391
  H      -0.624200     -1.126834      2.895266
  H       0.888775      3.184051     -0.211704
  H       2.316105      1.247141      2.394943
  H       1.787253      3.327700      1.418187
  Br     -0.993242     -1.675648     -1.137698
  Br      2.000216     -1.967097     -3.857284
  Br      2.050294     -3.169825     -5.913500
25
Coordinates from ORCA-job orca_input E -10758.757709999085
  Br      2.307473     -0.453872     -1.261093
  C      -0.148623     -0.613413      0.340518
  C       0.745664      0.448622     -0.282513
  C       1.368964      1.348351      0.727498
  O       1.901708      0.660489      1.772664
  C      -1.214352      0.014919      1.202220
  C      -2.083515      0.982046      0.687122
  C      -3.031372      1.573369      1.513365
  C      -3.118267      1.203506      2.855370
  C      -2.256008      0.239030      3.367693
  C      -1.303507     -0.355947      2.544052
  C       1.354935      2.678640      0.591396
  H       0.433586     -1.330578      0.919909
  H       0.254218      1.021000     -1.067160
  H      -2.030964      1.262885     -0.361349
  H      -3.705590      2.322640      1.108784
  H      -3.861691      1.665712      3.498713
  H      -2.322821     -0.054483      4.411414
  H      -0.625759     -1.105510      2.943186
  H       0.908192      3.128788     -0.286578
  H       2.289363      1.279929      2.407287
  H       1.780398      3.327427      1.351279
  Br     -1.003663     -1.726035     -1.088759
  Br      2.012699     -1.861568     -3.851732
  Br      2.015112     -2.936715     -5.986536
25
Coordinates from ORCA-job orca_input E -10758.757828152538
  Br      2.329147     -0.502334     -1.211843
  C      -0.143157     -0.627295      0.351404
  C       0.758265      0.427913     -0.270433
  C       1.368003      1.346260      0.730212
  O       1.891075      0.677767      1.792561
  C      -1.207807      0.007992      1.206342
  C      -2.075347      0.973564      0.684375
  C      -3.023956      1.571030      1.504370
  C      -3.114621      1.208283      2.848308
  C      -2.255345      0.245748      3.368144
  C      -1.301282     -0.354827      2.550102
  C       1.351029      2.673486      0.570469
  H       0.429623     -1.350002      0.933496
  H       0.281816      0.985196     -1.074932
  H      -2.018732      1.247102     -0.365848
  H      -3.696491      2.318908      1.094557
  H      -3.859130      1.674436      3.487569
  H      -2.326609     -0.042130      4.413108
  H      -0.626657     -1.104011      2.955270
  H       0.912855      3.106786     -0.320188
  H       2.268335      1.309271      2.421596
  H       1.765342      3.337345      1.323466
  Br     -1.011948     -1.728763     -1.079042
  Br      1.990565     -1.835227     -3.844713
  Br      1.981209     -2.847268     -6.011602
25
Coordinates from ORCA-job orca_input E -10758.758035057810
  Br      2.358635     -0.594131     -1.134065
  C      -0.136706     -0.668140      0.385703
  C       0.778473      0.368673     -0.249213
  C       1.365930      1.322646      0.731678
  O       1.884007      0.686964      1.816774
  C      -1.199138     -0.008814      1.217429
  C      -2.066844      0.944336      0.672321
  C      -3.014350      1.564694      1.475020
  C      -3.107136      1.237645      2.828417
  C      -2.249672      0.287747      3.373456
  C      -1.296439     -0.334664      2.570722
  C       1.335830      2.643912      0.535254
  H       0.425998     -1.386803      0.982227
  H       0.316436      0.897099     -1.081588
  H      -2.007946      1.189601     -0.384990
  H      -3.685778      2.302625      1.045866
  H      -3.851394      1.721078      3.455006
  H      -2.322829      0.026836      4.425297
  H      -0.624286     -1.074923      2.996419
  H       0.902067      3.047994     -0.371117
  H       2.241630      1.338562      2.436743
  H       1.733694      3.333023      1.274372
  Br     -1.010285     -1.784122     -1.034447
  Br      1.983847     -1.736656     -3.842493
  Br      1.912434     -2.605953     -6.068041
25
Coordinates from ORCA-job orca_input E -10758.758452207299
  Br      2.406211     -0.747646     -1.002447
  C      -0.123089     -0.743322      0.456829
  C       0.814630      0.258221     -0.213750
  C       1.371567      1.274272      0.723622
  O       1.903405      0.694772      1.834535
  C      -1.186730     -0.041640      1.240791
  C      -2.049619      0.888040      0.649345
  C      -2.997782      1.550957      1.414838
  C      -3.101008      1.291757      2.782658
  C      -2.250851      0.364679      3.377120
  C      -1.297776     -0.299423      2.608414
  C       1.309332      2.583426      0.469699
  H       0.427640     -1.442198      1.085764
  H       0.368140      0.734069     -1.086393
  H      -1.982295      1.082635     -0.418407
  H      -3.663197      2.270548      0.946839
  H      -3.846157      1.808577      3.380772
  H      -2.330501      0.154532      4.439732
  H      -0.632278     -1.021799      3.074458
  H       0.864917      2.937243     -0.452329
  H       2.236051      1.378637      2.433208
  H       1.689008      3.313540      1.178510
  Br     -0.993007     -1.910850     -0.934032
  Br      1.962581     -1.531578     -3.812228
  Br      1.766986     -2.128221     -6.120801
25
Coordinates from ORCA-job orca_input E -10758.758832946967
  Br      2.457912     -0.876501     -0.885012
  C      -0.100970     -0.813230      0.530199
  C       0.858065      0.148362     -0.180760
  C       1.383581      1.222345      0.713036
  O       1.932921      0.695931      1.843675
  C      -1.170397     -0.073656      1.260640
  C      -2.025379      0.830243      0.620896
  C      -2.978213      1.532084      1.343902
  C      -3.098229      1.340888      2.721893
  C      -2.257126      0.438756      3.367636
  C      -1.301019     -0.263950      2.638475
  C       1.285983      2.517476      0.409392
  H       0.443067     -1.482945      1.194086
  H       0.415815      0.574911     -1.081881
  H      -1.946194      0.976274     -0.454281
  H      -3.635581      2.231116      0.834887
  H      -3.847151      1.888937      3.286327
  H      -2.346351      0.278568      4.438107
  H      -0.643296     -0.965856      3.146180
  H       0.826424      2.823870     -0.522150
  H       2.241421      1.408012      2.422225
  H       1.648867      3.283556      1.088530
  Br     -0.954768     -2.048671     -0.822660
  Br      1.913326     -1.310417     -3.756108
  Br      1.563473     -1.636871     -6.100483
25
Coordinates from ORCA-job orca_input E -10758.758456149599
  Br      2.502033     -0.770265     -0.927101
  C      -0.062911     -0.779629      0.528150
  C       0.888754      0.172762     -0.189580
  C       1.397572      1.227999      0.742248
  O       1.940921      0.670099      1.862351
  C      -1.155903     -0.057921      1.248134
  C      -2.006919      0.842175      0.601845
  C      -2.979473      1.527316      1.317633
  C      -3.120298      1.325211      2.691451
  C      -2.278923      0.424120      3.342471
  C      -1.306098     -0.262861      2.622018
  C       1.296198      2.532149      0.481661
  H       0.498417     -1.423649      1.201569
  H       0.413416      0.623769     -1.062342
  H      -1.916562      1.003118     -0.470387
  H      -3.635078      2.223553      0.802085
  H      -3.883515      1.862618      3.246566
  H      -2.377990      0.253012      4.410432
  H      -0.646304     -0.960579      3.133149
  H       0.839371      2.866254     -0.441785
  H       2.240913      1.365789      2.464976
  H       1.653659      3.275594      1.188243
  Br     -0.866769     -2.061545     -0.798844
  Br      1.833853     -1.360927     -3.817322
  Br      1.397815     -1.798933     -6.120871
25
Coordinates from ORCA-job orca_input E -10758.758922024250
  Br      2.502849     -0.947269     -0.793896
  C      -0.081475     -0.850270      0.581715
  C       0.893140      0.083200     -0.159097
  C       1.403660      1.194313      0.702233
  O       1.948267      0.707160      1.853172
  C      -1.163028     -0.094658      1.274382
  C      -2.013551      0.786618      0.599696
  C      -2.976020      1.506280      1.292398
  C      -3.110795      1.356537      2.674012
  C      -2.273989      0.474846      3.354448
  C      -1.309639     -0.245914      2.655394
  C       1.306057      2.478719      0.357658
  H       0.460093     -1.492552      1.272436
  H       0.454394      0.477431     -1.077099
  H      -1.924229      0.903021     -0.478285
  H      -3.629466      2.188011      0.755549
  H      -3.866670      1.919919      3.213360
  H      -2.371396      0.345455      4.428369
  H      -0.653665     -0.929162      3.190186
  H       0.852409      2.754067     -0.586260
  H       2.244121      1.439883      2.411186
  H       1.664003      3.266153      1.014665
  Br     -0.904312     -2.143287     -0.743408
  Br      1.840976     -1.155856     -3.698762
  Br      1.374445     -1.303416     -6.037301
25
Coordinates from ORCA-job orca_input E -10758.758947233158
  Br      2.457973     -0.899497     -0.861052
  C      -0.101270     -0.819507      0.538429
  C       0.857375      0.142396     -0.175634
  C       1.385811      1.220955      0.710750
  O       1.930667      0.703591      1.846940
  C      -1.172122     -0.078321      1.264674
  C      -2.030823      0.817137      0.617477
  C      -2.985099      1.521184      1.336688
  C      -3.101584      1.339401      2.716098
  C      -2.256921      0.445762      3.367936
  C      -1.298863     -0.259405      2.643749
  C       1.297115      2.514677      0.396337
  H       0.441529     -1.487323      1.206083
  H       0.421639      0.562901     -1.082241
  H      -1.953369      0.953529     -0.458837
  H      -3.645938      2.213823      0.823621
  H      -3.851445      1.889269      3.277638
  H      -2.344573      0.294099      4.439811
  H      -0.637560     -0.954608      3.155387
  H       0.843736      2.816102     -0.539786
  H       2.240567      1.421260      2.417117
  H       1.663490      3.284270      1.069597
  Br     -0.944727     -2.062648     -0.815497
  Br      1.904102     -1.286057     -3.746481
  Br      1.546472     -1.573760     -6.092055
25
Coordinates from ORCA-job orca_input E -10758.758734243273
  Br      2.509031     -0.984562     -0.791361
  C      -0.066540     -0.877095      0.605282
  C       0.900725      0.033093     -0.140632
  C       1.387753      1.146320      0.731614
  O       1.949432      0.656911      1.874061
  C      -1.147674     -0.103239      1.266389
  C      -2.016168      0.736874      0.560884
  C      -2.974750      1.482178      1.232555
  C      -3.087883      1.399798      2.622616
  C      -2.233519      0.560289      3.334456
  C      -1.274277     -0.187651      2.656695
  C       1.261669      2.433959      0.405641
  H       0.482526     -1.505900      1.305787
  H       0.444885      0.428350     -1.049905
  H      -1.943676      0.798958     -0.523670
  H      -3.643082      2.130598      0.672394
  H      -3.841485      1.982970      3.144485
  H      -2.314986      0.483027      4.415288
  H      -0.605079     -0.839744      3.214361
  H       0.795739      2.713311     -0.531390
  H       2.226819      1.390538      2.441150
  H       1.610536      3.219421      1.069968
  Br     -0.843734     -2.217599     -0.696207
  Br      1.833953     -1.048707     -3.722831
  Br      1.255964     -1.112869     -6.040877
25
Coordinates from ORCA-job orca_input E -10758.759033423612
  Br      2.475388     -0.977623     -0.799347
  C      -0.077898     -0.856416      0.595779
  C       0.894529      0.088492     -0.146593
  C       1.424295      1.188364      0.715733
  O       1.967035      0.695047      1.864595
  C      -1.166426     -0.099219      1.275336
  C      -2.030521      0.754698      0.582102
  C      -2.998597      1.478323      1.263276
  C      -3.123433      1.358294      2.648784
  C      -2.273616      0.503515      3.346370
  C      -1.303582     -0.222349      2.660403
  C       1.340674      2.475494      0.375063
  H       0.466755     -1.492818      1.290269
  H       0.454637      0.491583     -1.059852
  H      -1.948002      0.845086     -0.498881
  H      -3.663719      2.138704      0.714278
  H      -3.884007      1.924356      3.178834
  H      -2.366501      0.397923      4.423344
  H      -0.637450     -0.886266      3.206433
  H       0.886735      2.759128     -0.566376
  H       2.273082      1.425632      2.420389
  H       1.710270      3.257035      1.032541
  Br     -0.887784     -2.179626     -0.713857
  Br      1.837721     -1.115018     -3.714632
  Br      1.296594     -1.233109     -6.037243
25
Coordinates from ORCA-job orca_input E -10758.758272365805
  Br      2.497600     -0.997560     -0.798478
  C      -0.066277     -0.844684      0.586858
  C       0.890274      0.087676     -0.152208
  C       1.406253      1.189747      0.722971
  O       1.919738      0.710762      1.902504
  C      -1.157053     -0.086636      1.279823
  C      -2.004552      0.781264      0.601689
  C      -2.977160      1.493798      1.284990
  C      -3.118425      1.346478      2.651119
  C      -2.280647      0.480015      3.331319
  C      -1.303765     -0.233887      2.648985
  C       1.334380      2.477346      0.359388
  H       0.478972     -1.478116      1.290838
  H       0.458632      0.489193     -1.079906
  H      -1.909908      0.890748     -0.465040
  H      -3.632156      2.164687      0.750372
  H      -3.882976      1.902238      3.181440
  H      -2.386479      0.355755      4.395192
  H      -0.646468     -0.907506      3.181046
  H       0.902258      2.748525     -0.606179
  H       2.225931      1.450506      2.457621
  H       1.691996      3.271410      1.021153
  Br     -0.877905     -2.162424     -0.702787
  Br      1.822364     -1.122933     -3.724001
  Br      1.281552     -1.287170     -6.061958
25
Coordinates from ORCA-job orca_input E -10758.756319706776
  Br      2.511372     -0.997409     -0.827230
  C      -0.054601     -0.840291      0.572894
  C       0.871615      0.078928     -0.153438
  C       1.379395      1.162301      0.737763
  O       1.881671      0.676789      1.921505
  C      -1.151788     -0.081806      1.274392
  C      -2.007716      0.777228      0.559838
  C      -2.983115      1.491046      1.244188
  C      -3.105341      1.356386      2.648693
  C      -2.252836      0.501680      3.361985
  C      -1.275741     -0.217869      2.678494
  C       1.313702      2.450915      0.375719
  H       0.496751     -1.462286      1.293591
  H       0.440049      0.490900     -1.076660
  H      -1.927018      0.874536     -0.536387
  H      -3.651466      2.152956      0.681620
  H      -3.869397      1.914249      3.182275
  H      -2.345124      0.390872      4.457476
  H      -0.605618     -0.883185      3.235583
  H       0.891544      2.727717     -0.594507
  H       2.199635      1.409452      2.475234
  H       1.668923      3.238743      1.042938
  Br     -0.856411     -2.140035     -0.702636
  Br      1.804346     -1.092306     -3.731477
  Br      1.293348     -1.260280     -6.065105
25
Coordinates from ORCA-job orca_input E -10758.759166084141
  Br      2.499138     -0.969184     -0.813096
  C      -0.062212     -0.840029      0.591804
  C       0.882412      0.091768     -0.143889
  C       1.407185      1.176061      0.723871
  O       1.917153      0.689827      1.887888
  C      -1.158940     -0.088139      1.285113
  C      -2.017854      0.765506      0.579286
  C      -2.998585      1.478504      1.254150
  C      -3.128801      1.347925      2.640334
  C      -2.276195      0.496610      3.346446
  C      -1.293431     -0.220886      2.670881
  C       1.352025      2.453143      0.365390
  H       0.486490     -1.459512      1.299526
  H       0.450271      0.498392     -1.055311
  H      -1.932391      0.860703     -0.504794
  H      -3.666516      2.136269      0.696363
  H      -3.898049      1.905539      3.165831
  H      -2.373906      0.386390      4.425459
  H      -0.624454     -0.882546      3.221384
  H       0.924126      2.732365     -0.587888
  H       2.245856      1.411350      2.426753
  H       1.722894      3.227962      1.019833
  Br     -0.857652     -2.148970     -0.696054
  Br      1.807498     -1.089939     -3.714407
  Br      1.260119     -1.239879     -6.028123
25
Coordinates from ORCA-job orca_input E -10758.759223448964
  Br      2.496667     -0.979123     -0.816626
  C      -0.067648     -0.855205      0.587093
  C       0.887196      0.087693     -0.153955
  C       1.414604      1.184640      0.714300
  O       1.920759      0.703400      1.882233
  C      -1.164945     -0.097859      1.280147
  C      -2.011325      0.767480      0.588227
  C      -2.986064      1.488233      1.275667
  C      -3.125447      1.351556      2.657249
  C      -2.289235      0.486791      3.346216
  C      -1.311034     -0.236731      2.660219
  C       1.351122      2.477950      0.359276
  H       0.473873     -1.479047      1.297451
  H       0.459664      0.492261     -1.069911
  H      -1.917435      0.870054     -0.488064
  H      -3.639888      2.157115      0.732989
  H      -3.889386      1.915242      3.192506
  H      -2.393770      0.371157      4.420943
  H      -0.653375     -0.907624      3.200310
  H       0.923257      2.755379     -0.594534
  H       2.235862      1.447907      2.430708
  H       1.712375      3.268666      1.020458
  Br     -0.862997     -2.174458     -0.700760
  Br      1.821069     -1.107228     -3.720137
  Br      1.282281     -1.269018     -6.045256
25
Coordinates from ORCA-job orca_input E -10758.758913800173
  Br      2.467731     -0.975183     -0.836762
  C      -0.060602     -0.850323      0.616127
  C       0.888311      0.082560     -0.140232
  C       1.431981      1.172841      0.720888
  O       1.946112      0.691017      1.886726
  C      -1.153285     -0.083275      1.300739
  C      -2.015204      0.769611      0.591591
  C      -3.005262      1.476114      1.250940
  C      -3.144770      1.341989      2.625137
  C      -2.288332      0.496127      3.341740
  C      -1.296003     -0.213679      2.682482
  C       1.372475      2.459843      0.361476
  H       0.481982     -1.472033      1.332792
  H       0.446876      0.491981     -1.048970
  H      -1.925173      0.867541     -0.482790
  H      -3.675461      2.130618      0.689113
  H      -3.923686      1.891926      3.134110
  H      -2.394085      0.382284      4.410218
  H      -0.627336     -0.874651      3.237592
  H       0.939174      2.735306     -0.593596
  H       2.269763      1.428138      2.432855
  H       1.743441      3.246806      1.017400
  Br     -0.867243     -2.187748     -0.657770
  Br      1.801501     -1.072154     -3.727717
  Br      1.253273     -1.216424     -6.087338
25
Coordinates from ORCA-job orca_input E -10758.759487918947
  Br      2.472936     -0.965394     -0.837546
  C      -0.060839     -0.850775      0.609908
  C       0.878165      0.079851     -0.139494
  C       1.414839      1.168661      0.722455
  O       1.932091      0.688617      1.887330
  C      -1.157280     -0.089334      1.291604
  C      -2.015320      0.758646      0.578984
  C      -2.996634      1.475630      1.249086
  C      -3.130758      1.354648      2.635740
  C      -2.282614      0.507249      3.344121
  C      -1.298600     -0.212983      2.675514
  C       1.353904      2.446297      0.361963
  H       0.488931     -1.464470      1.325516
  H       0.431971      0.488076     -1.045364
  H      -1.926397      0.848147     -0.503037
  H      -3.661027      2.130405      0.691167
  H      -3.900896      1.915362      3.156083
  H      -2.384297      0.403370      4.422487
  H      -0.633112     -0.872180      3.227309
  H       0.920904      2.718893     -0.594499
  H       2.261612      1.412698      2.425749
  H       1.725070      3.227250      1.014012
  Br     -0.844580     -2.193404     -0.666575
  Br      1.809803     -1.061364     -3.722607
  Br      1.268308     -1.194665     -6.053156
25
Coordinates from ORCA-job orca_input E -10758.759384887253
  Br      2.482373     -0.976235     -0.836500
  C      -0.059641     -0.853899      0.602571
  C       0.882335      0.081937     -0.142549
  C       1.421838      1.171937      0.716581
  O       1.953527      0.679410      1.867959
  C      -1.158060     -0.095516      1.289268
  C      -2.004664      0.761476      0.584472
  C      -2.988780      1.481003      1.254985
  C      -3.134997      1.351657      2.633704
  C      -2.290841      0.499995      3.343501
  C      -1.305211     -0.224446      2.672012
  C       1.345364      2.467665      0.368272
  H       0.483800     -1.474481      1.307297
  H       0.438024      0.493079     -1.048404
  H      -1.906752      0.855808     -0.493264
  H      -3.648621      2.141183      0.697490
  H      -3.908075      1.913456      3.153539
  H      -2.399753      0.392358      4.419481
  H      -0.641897     -0.886778      3.225639
  H       0.899329      2.752424     -0.574329
  H       2.274510      1.417679      2.410959
  H       1.717331      3.250985      1.018451
  Br     -0.846735     -2.177026     -0.678483
  Br      1.800314     -1.077428     -3.713137
  Br      1.261462     -1.227013     -6.022765
25
Coordinates from ORCA-job orca_input E -10758.759477297632
  Br      2.482383     -0.987348     -0.823292
  C      -0.070358     -0.853909      0.598172
  C       0.881056      0.086380     -0.147332
  C       1.418291      1.181290      0.715171
  O       1.924483      0.703841      1.885227
  C      -1.168377     -0.096753      1.285411
  C      -2.019328      0.759359      0.586271
  C      -2.994716      1.478738      1.268565
  C      -3.130546      1.349714      2.652504
  C      -2.288041      0.495410      3.349532
  C      -1.309640     -0.227470      2.667349
  C       1.365495      2.464316      0.350277
  H       0.475176     -1.471536      1.313142
  H       0.447528      0.492716     -1.061519
  H      -1.927590      0.854836     -0.492812
  H      -3.653934      2.140246      0.719877
  H      -3.895834      1.912066      3.183638
  H      -2.391728      0.385420      4.424328
  H      -0.647316     -0.891091      3.212369
  H       0.941376      2.736480     -0.607853
  H       2.245759      1.443567      2.429507
  H       1.732647      3.253009      1.004992
  Br     -0.860965     -2.183226     -0.682040
  Br      1.826295     -1.084193     -3.715621
  Br      1.284066     -1.222635     -6.059113
25
Coordinates from ORCA-job orca_input E -10758.759441075890
  Br      2.468660     -0.969378     -0.841837
  C      -0.062304     -0.843917      0.606982
  C       0.880588      0.085182     -0.144663
  C       1.422054      1.170635      0.721577
  O       1.936864      0.688547      1.887277
  C      -1.160471     -0.084715      1.289147
  C      -2.022028      0.762716      0.577294
  C      -3.001862      1.473308      1.249078
  C      -3.133705      1.346380      2.631692
  C      -2.282495      0.501064      3.339136
  C      -1.298613     -0.212288      2.671257
  C       1.365052      2.450205      0.363926
  H       0.489162     -1.455538      1.331738
  H       0.436180      0.495671     -1.051332
  H      -1.934611      0.856712     -0.500493
  H      -3.667963      2.127405      0.694509
  H      -3.902892      1.901328      3.152763
  H      -2.383615      0.392841      4.413414
  H      -0.631440     -0.870379      3.220792
  H       0.934911      2.724325     -0.593809
  H       2.268690      1.413788      2.429495
  H       1.733731      3.235057      1.022647
  Br     -0.847607     -2.193832     -0.663465
  Br      1.799967     -1.069434     -3.713973
  Br      1.259926     -1.206452     -6.036404
25
Coordinates from ORCA-job orca_input E -10758.759352981435
  Br      2.476575     -0.975702     -0.832160
  C      -0.054908     -0.857170      0.619089
  C       0.879902      0.077751     -0.132380
  C       1.423035      1.168514      0.720543
  O       1.959356      0.679923      1.872564
  C      -1.154048     -0.097995      1.300465
  C      -2.007772      0.752448      0.581275
  C      -2.994434      1.476389      1.243044
  C      -3.139761      1.357561      2.626234
  C      -2.294008      0.509186      3.344771
  C      -1.303988     -0.218631      2.683615
  C       1.347696      2.456095      0.364299
  H       0.494036     -1.470631      1.324763
  H       0.430925      0.485568     -1.038013
  H      -1.910220      0.837622     -0.500817
  H      -3.656911      2.133079      0.677665
  H      -3.914370      1.923372      3.140981
  H      -2.404291      0.409973      4.424333
  H      -0.640489     -0.878985      3.242700
  H       0.899737      2.734919     -0.581563
  H       2.294389      1.403445      2.402392
  H       1.722977      3.238286      1.007728
  Br     -0.842744     -2.192335     -0.657208
  Br      1.801478     -1.058103     -3.719926
  Br      1.254017     -1.175350     -6.057644
25
Coordinates from ORCA-job orca_input E -10758.759370224283
  Br      2.476558     -0.976519     -0.845282
  C      -0.060960     -0.860119      0.606077
  C       0.880923      0.080152     -0.145728
  C       1.422841      1.173313      0.714935
  O       1.939619      0.693198      1.878184
  C      -1.161606     -0.101522      1.289291
  C      -2.006789      0.752958      0.585807
  C      -2.989092      1.477235      1.257808
  C      -3.134404      1.354708      2.640462
  C      -2.295333      0.502326      3.346072
  C      -1.310862     -0.226101      2.672575
  C       1.361347      2.461606      0.356827
  H       0.485312     -1.471727      1.316254
  H       0.433385      0.490537     -1.048889
  H      -1.909096      0.843626     -0.493385
  H      -3.646407      2.137700      0.700365
  H      -3.905401      1.920649      3.162610
  H      -2.405668      0.397700      4.420953
  H      -0.650895     -0.889076      3.224678
  H       0.928845      2.737426     -0.594848
  H       2.256275      1.441978      2.426961
  H       1.734498      3.245985      1.007110
  Br     -0.842463     -2.199454     -0.665160
  Br      1.805029     -1.068164     -3.714330
  Br      1.260524     -1.199185     -6.042596
25
Coordinates from ORCA-job orca_input E -10758.759525815442
  Br      2.471653     -0.991708     -0.826603
  C      -0.069259     -0.848581      0.604471
  C       0.878638      0.083293     -0.145212
  C       1.420911      1.173863      0.717255
  O       1.939929      0.689920      1.879790
  C      -1.168208     -0.088440      1.287321
  C      -2.026098      0.759831      0.581813
  C      -3.001699      1.473956      1.258737
  C      -3.132813      1.348289      2.640852
  C      -2.284638      0.502425      3.343856
  C      -1.304581     -0.214046      2.670083
  C       1.360533      2.459135      0.358350
  H       0.478014     -1.463525      1.332018
  H       0.440559      0.489512     -1.058853
  H      -1.937625      0.852756     -0.494116
  H      -3.663476      2.130198      0.710886
  H      -3.898305      1.906080      3.166914
  H      -2.383861      0.396701      4.419692
  H      -0.638453     -0.872010      3.218168
  H       0.928002      2.734905     -0.596079
  H       2.275859      1.419850      2.416551
  H       1.728878      3.247842      1.014554
  Br     -0.854041     -2.194413     -0.670533
  Br      1.816902     -1.077277     -3.721649
  Br      1.289361     -1.199325     -6.051516
25
Coordinates from ORCA-job orca_input E -10758.759547360816
  Br      2.467893     -0.973198     -0.844812
  C      -0.055903     -0.853537      0.619646
  C       0.879849      0.078848     -0.136253
  C       1.425855      1.167414      0.720127
  O       1.949126      0.688271      1.882506
  C      -1.155893     -0.095027      1.298576
  C      -2.012399      0.752203      0.579339
  C      -2.996745      1.472426      1.242476
  C      -3.136914      1.354100      2.626542
  C      -2.289669      0.508342      3.343165
  C      -1.303004     -0.216288      2.679695
  C       1.363160      2.446634      0.358271
  H       0.495376     -1.462848      1.331137
  H       0.427331      0.489008     -1.037755
  H      -1.921086      0.835556     -0.506125
  H      -3.663266      2.124992      0.674858
  H      -3.910384      1.916416      3.141085
  H      -2.399080      0.406543      4.417123
  H      -0.639809     -0.875412      3.234930
  H       0.925398      2.718319     -0.595897
  H       2.281651      1.416974      2.419724
  H       1.736404      3.232511      1.007640
  Br     -0.842179     -2.197983     -0.647812
  Br      1.793102     -1.052711     -3.709018
  Br      1.247368     -1.162321     -6.042421
25
Coordinates from ORCA-job orca_input E -10758.759591211583
  Br      2.475534     -0.983668     -0.837588
  C      -0.057747     -0.860555      0.617319
  C       0.879785      0.073857     -0.139691
  C       1.424347      1.168019      0.714377
  O       1.946117      0.689457      1.877019
  C      -1.161083     -0.101897      1.293571
  C      -2.009859      0.748634      0.579662
  C      -2.994995      1.471700      1.243031
  C      -3.141683      1.353094      2.624921
  C      -2.298188      0.506405      3.342407
  C      -1.310085     -0.220809      2.679006
  C       1.363609      2.451223      0.348945
  H       0.494368     -1.463850      1.335012
  H       0.430552      0.480045     -1.045196
  H      -1.906504      0.839994     -0.491149
  H      -3.650645      2.130904      0.685003
  H      -3.912960      1.920325      3.143384
  H      -2.405989      0.409448      4.424564
  H      -0.645104     -0.877843      3.241743
  H       0.927255      2.723040     -0.604122
  H       2.278036      1.424276      2.412085
  H       1.740915      3.236360      0.992525
  Br     -0.838665     -2.212109     -0.644904
  Br      1.794604     -1.044332     -3.700647
  Br      1.244565     -1.142487     -6.034525
25
Coordinates from ORCA-job orca_input E -10758.759368531984
  Br      2.477507     -1.004108     -0.821355
  C      -0.063144     -0.858955      0.613246
  C       0.881901      0.072724     -0.143286
  C       1.425212      1.169743      0.711574
  O       1.950288      0.685730      1.870068
  C      -1.163963     -0.095715      1.292671
  C      -2.015128      0.751549      0.582396
  C      -2.992646      1.474840      1.255822
  C      -3.131683      1.356750      2.639902
  C      -2.293426      0.507781      3.342702
  C      -1.308821     -0.215170      2.675758
  C       1.357890      2.461994      0.351825
  H       0.483884     -1.466376      1.341959
  H       0.441789      0.474368     -1.057871
  H      -1.926183      0.833345     -0.505364
  H      -3.652656      2.129625      0.697828
  H      -3.902032      1.918289      3.158135
  H      -2.404846      0.402176      4.409579
  H      -0.651461     -0.876114      3.222555
  H       0.919153      2.739059     -0.596728
  H       2.282171      1.425138      2.405199
  H       1.730578      3.250803      0.999404
  Br     -0.844400     -2.214354     -0.651497
  Br      1.803362     -1.055476     -3.704230
  Br      1.262834     -1.148414     -6.033540
25
Coordinates from ORCA-job orca_input E -10758.759681395155
  Br      2.470975     -1.001057     -0.825234
  C      -0.062189     -0.860103      0.617760
  C       0.880585      0.069639     -0.138208
  C       1.424041      1.164352      0.714925
  O       1.942932      0.690567      1.880899
  C      -1.161446     -0.097257      1.295262
  C      -2.017269      0.746290      0.579712
  C      -2.997327      1.468646      1.244543
  C      -3.133116      1.356179      2.627791
  C      -2.285575      0.515125      3.343115
  C      -1.303617     -0.211614      2.676899
  C       1.361621      2.445237      0.348434
  H       0.484469     -1.469693      1.336706
  H       0.437128      0.472145     -1.048768
  H      -1.927357      0.826128     -0.502366
  H      -3.661529      2.119547      0.682213
  H      -3.901800      1.920733      3.145397
  H      -2.387784      0.421160      4.422699
  H      -0.638822     -0.866203      3.232940
  H       0.927770      2.713320     -0.607275
  H       2.273297      1.426512      2.416748
  H       1.730039      3.237311      0.998265
  Br     -0.846163     -2.208593     -0.649437
  Br      1.802090     -1.041263     -3.703414
  Br      1.255226     -1.117877     -6.032855
25
Coordinates from ORCA-job orca_input E -10758.759605782330
  Br      2.471507     -0.993426     -0.834454
  C      -0.055423     -0.865951      0.627926
  C       0.879742      0.063830     -0.135425
  C       1.425679      1.161240      0.713108
  O       1.953171      0.687181      1.875384
  C      -1.159005     -0.103426      1.298180
  C      -2.011815      0.740489      0.574272
  C      -2.994877      1.468677      1.235656
  C      -3.139166      1.360147      2.621688
  C      -2.296127      0.517044      3.343300
  C      -1.307014     -0.212605      2.686519
  C       1.361986      2.441551      0.342751
  H       0.498231     -1.465159      1.351758
  H       0.426944      0.466535     -1.040618
  H      -1.911149      0.823354     -0.500004
  H      -3.652599      2.123008      0.671214
  H      -3.912040      1.929015      3.134195
  H      -2.410593      0.419921      4.413201
  H      -0.644452     -0.868319      3.250124
  H       0.921935      2.708685     -0.610728
  H       2.288608      1.421397      2.405094
  H       1.740764      3.229318      0.981932
  Br     -0.834851     -2.227712     -0.627566
  Br      1.789873     -1.022150     -3.692619
  Br      1.236850     -1.083415     -6.028137
25
Coordinates from ORCA-job orca_input E -10758.759711003246
  Br      2.474112     -1.003856     -0.825635
  C      -0.057964     -0.865329      0.625456
  C       0.881223      0.063332     -0.136178
  C       1.426188      1.161683      0.712268
  O       1.949098      0.688936      1.877162
  C      -1.160535     -0.101864      1.297757
  C      -2.012257      0.741851      0.578221
  C      -2.994948      1.467945      1.239189
  C      -3.137666      1.358001      2.621899
  C      -2.294595      0.515876      3.340380
  C      -1.307958     -0.213129      2.680926
  C       1.363929      2.443413      0.340444
  H       0.492457     -1.466648      1.349704
  H       0.434110      0.463945     -1.046033
  H      -1.916858      0.820808     -0.502411
  H      -3.654958      2.120128      0.674497
  H      -3.908778      1.925510      3.135886
  H      -2.402674      0.423229      4.418437
  H      -0.644720     -0.867369      3.242181
  H       0.927036      2.710036     -0.614277
  H       2.283226      1.425805      2.407358
  H       1.739706      3.233714      0.981242
  Br     -0.838547     -2.224618     -0.630655
  Br      1.791573     -1.022536     -3.689050
  Br      1.235979     -1.079633     -6.022019
25
Coordinates from ORCA-job orca_input E -10758.759696177560
  Br      2.470249     -1.015987     -0.816824
  C      -0.062841     -0.868069      0.622788
  C       0.880323      0.059536     -0.135771
  C       1.423668      1.157830      0.711904
  O       1.945606      0.687500      1.877035
  C      -1.161690     -0.101699      1.297109
  C      -2.019105      0.736247      0.576611
  C      -2.997622      1.464439      1.238776
  C      -3.130440      1.363306      2.625413
  C      -2.281969      0.527275      3.345517
  C      -1.300606     -0.204478      2.682790
  C       1.357030      2.438707      0.343198
  H       0.482541     -1.475714      1.343600
  H       0.437448      0.457611     -1.048193
  H      -1.928854      0.809333     -0.503395
  H      -3.661887      2.111887      0.673599
  H      -3.898753      1.931775      3.139911
  H      -2.384589      0.439525      4.422898
  H      -0.636620     -0.856054      3.240660
  H       0.920745      2.704388     -0.610940
  H       2.273876      1.427149      2.411058
  H       1.724363      3.233321      0.990115
  Br     -0.845132     -2.220284     -0.642123
  Br      1.805688     -1.024355     -3.700676
  Br      1.254752     -1.063956     -6.028308
25
Coordinates from ORCA-job orca_input E -10758.759726004120
  Br      2.471687     -1.015413     -0.819491
  C      -0.059617     -0.869816      0.628171
  C       0.880896      0.056700     -0.134675
  C       1.425321      1.157244      0.710993
  O       1.947482      0.689041      1.877797
  C      -1.160851     -0.103509      1.298971
  C      -2.015345      0.735596      0.576376
  C      -2.995845      1.464795      1.236347
  C      -3.134512      1.362280      2.620683
  C      -2.289173      0.524673      3.342158
  C      -1.304682     -0.207306      2.683472
  C       1.361711      2.437127      0.336666
  H       0.488885     -1.471910      1.352795
  H       0.435014      0.454282     -1.046264
  H      -1.922376      0.808862     -0.504341
  H      -3.657475      2.113520      0.669970
  H      -3.904289      1.931845      3.133530
  H      -2.395434      0.436612      4.419067
  H      -0.640248     -0.858454      3.246403
  H       0.925547      2.700226     -0.619268
  H       2.280464      1.427647      2.407055
  H       1.733610      3.231462      0.978460
  Br     -0.840479     -2.229870     -0.628219
  Br      1.795861     -1.012342     -3.689586
  Br      1.240029     -1.044063     -6.020322
25
Coordinates from ORCA-job orca_input E -10758.759729043037
  Br      2.472337     -1.021201     -0.816227
  C      -0.058596     -0.872852      0.632879
  C       0.881229      0.051684     -0.132453
  C       1.426396      1.153821      0.709851
  O       1.950987      0.687103      1.876112
  C      -1.160692     -0.105255      1.300896
  C      -2.015216      0.731307      0.575192
  C      -2.996847      1.461931      1.231406
  C      -3.135262      1.364282      2.616860
  C      -2.289908      0.528993      3.341277
  C      -1.304972     -0.204998      2.685291
  C       1.362231      2.433195      0.332422
  H       0.490782     -1.471624      1.360344
  H       0.434615      0.447484     -1.044455
  H      -1.921717      0.801482     -0.505090
  H      -3.658951      2.108511      0.661941
  H      -3.905428      1.935422      3.127463
  H      -2.395931      0.444969      4.419649
  H      -0.641591     -0.854739      3.248690
  H       0.924487      2.694874     -0.623081
  H       2.284028      1.427404      2.403341
  H       1.737779      3.226468      0.968987
  Br     -0.838156     -2.237705     -0.618486
  Br      1.793028     -0.999923     -3.682375
  Br      1.231548     -1.011403     -6.013684
25
Coordinates from ORCA-job orca_input E -10758.759744655432
  Br      2.471832     -1.035420     -0.809547
  C      -0.058305     -0.880151      0.639228
  C       0.881642      0.041312     -0.129865
  C       1.426676      1.147482      0.707227
  O       1.951415      0.686502      1.875529
  C      -1.160499     -0.109257      1.303216
  C      -2.015456      0.722668      0.573162
  C      -2.996245      1.458156      1.225953
  C      -3.134342      1.369075      2.611268
  C      -2.288537      0.538443      3.340502
  C      -1.303252     -0.199442      2.689379
  C       1.361409      2.425209      0.324284
  H       0.490689     -1.475661      1.369050
  H       0.435109      0.433123     -1.043500
  H      -1.922920      0.785276     -0.508205
  H      -3.658390      2.101285      0.653358
  H      -3.904343      1.943557      3.118539
  H      -2.393955      0.461510      4.419524
  H      -0.638875     -0.845113      3.257386
  H       0.923420      2.682234     -0.632217
  H       2.284861      1.428970      2.398933
  H       1.735552      3.222440      0.957978
  Br     -0.836982     -2.250285     -0.606557
  Br      1.791687     -0.979678     -3.674148
  Br      1.223989     -0.953004     -6.003725
25
Coordinates from ORCA-job orca_input E -10758.759774054477
  Br      2.467480     -1.055370     -0.806318
  C      -0.058186     -0.890948      0.649936
  C       0.880378      0.026142     -0.125715
  C       1.427707      1.135915      0.705627
  O       1.952175      0.682405      1.876940
  C      -1.161129     -0.114899      1.308148
  C      -2.019571      0.705695      0.569910
  C      -2.999157      1.448982      1.216368
  C      -3.132793      1.377986      2.603002
  C      -2.284278      0.557810      3.339515
  C      -1.299918     -0.187580      2.694607
  C       1.361689      2.411661      0.315916
  H       0.490417     -1.480457      1.383918
  H       0.431461      0.414156     -1.039845
  H      -1.930705      0.753401     -0.512455
  H      -3.663662      2.083639      0.637855
  H      -3.901665      1.958570      3.105703
  H      -2.387136      0.494352      4.418159
  H      -0.631085     -0.823714      3.271404
  H       0.924056      2.662674     -0.642569
  H       2.289293      1.427028      2.394351
  H       1.732597      3.215423      0.947960
  Br     -0.834844     -2.270383     -0.583335
  Br      1.793092     -0.953754     -3.673660
  Br      1.219966     -0.859504     -5.998671
25
Coordinates from ORCA-job orca_input E -10758.759798800160
  Br      2.462975     -1.075161     -0.800715
  C      -0.058828     -0.901016      0.660098
  C       0.878869      0.011784     -0.121780
  C       1.428121      1.125328      0.703281
  O       1.954250      0.677853      1.875840
  C      -1.162068     -0.120139      1.312495
  C      -2.024299      0.689670      0.566546
  C      -3.002016      1.440243      1.207508
  C      -3.131947      1.385580      2.594013
  C      -2.279430      0.576359      3.339318
  C      -1.295338     -0.174930      2.701646
  C       1.361435      2.398512      0.307604
  H       0.490533     -1.483976      1.399414
  H       0.428749      0.395562     -1.037061
  H      -1.939654      0.722783     -0.517796
  H      -3.668825      2.066740      0.623853
  H      -3.900056      1.971177      3.091484
  H      -2.378905      0.526340      4.419202
  H      -0.624001     -0.802674      3.284088
  H       0.923357      2.644648     -0.651799
  H       2.292113      1.425657      2.389288
  H       1.733369      3.204593      0.934641
  Br     -0.834238     -2.290704     -0.562343
  Br      1.794226     -0.928523     -3.671407
  Br      1.217786     -0.766474     -5.990668
25
Coordinates from ORCA-job orca_input E -10758.759815403586
  Br      2.460425     -1.102931     -0.792285
  C      -0.057171     -0.914283      0.675001
  C       0.879751     -0.008065     -0.116618
  C       1.431271      1.112429      0.698417
  O       1.958206      0.674012      1.873933
  C      -1.161964     -0.127259      1.318140
  C      -2.025987      0.671027      0.562498
  C      -3.004626      1.428761      1.192769
  C      -3.131880      1.394255      2.581256
  C      -2.277421      0.596314      3.336833
  C      -1.293115     -0.162657      2.708525
  C       1.364691      2.383139      0.292332
  H       0.493459     -1.486644      1.420931
  H       0.428754      0.369855     -1.033910
  H      -1.942791      0.689215     -0.521577
  H      -3.673790      2.045679      0.599770
  H      -3.900315      1.985764      3.070727
  H      -2.374991      0.561816      4.418371
  H      -0.621463     -0.781964      3.296878
  H       0.925616      2.621926     -0.668318
  H       2.300038      1.424421      2.378550
  H       1.736993      3.195204      0.912476
  Br     -0.831944     -2.318694     -0.529962
  Br      1.786376     -0.889656     -3.653854
  Br      1.198058     -0.642436     -5.964134
25
Coordinates from ORCA-job orca_input E -10758.759824801858
  Br      2.462613     -1.103081     -0.789258
  C      -0.056229     -0.912849      0.675861
  C       0.880916     -0.007637     -0.115648
  C       1.432516      1.112845      0.698303
  O       1.959918      0.673802      1.873586
  C      -1.161488     -0.126138      1.318038
  C      -2.026082      0.671784      0.561036
  C      -3.005473      1.428014      1.190981
  C      -3.132915      1.392830      2.580381
  C      -2.279221      0.594075      3.335068
  C      -1.294642     -0.163788      2.706885
  C       1.367414      2.383240      0.291409
  H       0.494663     -1.484298      1.422381
  H       0.430553      0.369385     -1.033911
  H      -1.942063      0.691493     -0.522691
  H      -3.674034      2.045342      0.598422
  H      -3.901210      1.983922      3.070414
  H      -2.377178      0.558431      4.416539
  H      -0.622422     -0.782960      3.296321
  H       0.927784      2.622782     -0.668779
  H       2.299692      1.425841      2.379516
  H       1.742811      3.193151      0.909289
  Br     -0.831241     -2.317507     -0.529532
  Br      1.783694     -0.884686     -3.649632
  Br      1.187804     -0.644763     -5.958230
25
Coordinates from ORCA-job orca_input E -10758.759825976535
  Br      2.464458     -1.098561     -0.791077
  C      -0.054474     -0.911728      0.676263
  C       0.881287     -0.006515     -0.115808
  C       1.432990      1.113990      0.698560
  O       1.959585      0.674992      1.874776
  C      -1.160380     -0.125368      1.317801
  C      -2.022901      0.674624      0.561773
  C      -3.004171      1.429203      1.191066
  C      -3.134915      1.390998      2.579461
  C      -2.281627      0.591419      3.335296
  C      -1.296864     -0.166245      2.705801
  C       1.370301      2.383979      0.290810
  H       0.497256     -1.481869      1.424445
  H       0.429366      0.370109     -1.033636
  H      -1.936573      0.697183     -0.521241
  H      -3.672155      2.047421      0.597626
  H      -3.904456      1.981103      3.069029
  H      -2.381955      0.553151      4.415922
  H      -0.627284     -0.787761      3.293125
  H       0.931154      2.623551     -0.670086
  H       2.300159      1.426627      2.380628
  H       1.747459      3.193110      0.908398
  Br     -0.828501     -2.318262     -0.528298
  Br      1.780586     -0.880933     -3.647690
  Br      1.177835     -0.654989     -5.956193
25
Coordinates from ORCA-job orca_input E -10758.759826565034
  Br      2.464355     -1.114003     -0.783268
  C      -0.053650     -0.919168      0.682757
  C       0.882801     -0.018009     -0.112728
  C       1.433153      1.106738      0.696081
  O       1.959916      0.674584      1.874595
  C      -1.159200     -0.128897      1.319428
  C      -2.022802      0.665538      0.558563
  C      -3.002990      1.424918      1.184362
  C      -3.132801      1.396110      2.572625
  C      -2.279348      0.601537      3.332424
  C      -1.294697     -0.160107      2.707809
  C       1.368573      2.374503      0.282590
  H       0.496521     -1.487266      1.433495
  H       0.431581      0.354269     -1.032430
  H      -1.937648      0.680135     -0.525160
  H      -3.671196      2.039128      0.587966
  H      -3.901743      1.989755      3.059110
  H      -2.378933      0.570555      4.412978
  H      -0.623361     -0.776786      3.300642
  H       0.929283      2.608547     -0.679531
  H       2.299074      1.429254      2.377262
  H       1.743952      3.187707      0.897041
  Br     -0.826286     -2.330032     -0.517375
  Br      1.778484     -0.856214     -3.635588
  Br      1.163144     -0.593564     -5.936898
25
Coordinates from ORCA-job orca_input E -10758.759828416834
  Br      2.464296     -1.104147     -0.789637
  C      -0.053954     -0.915932      0.680653
  C       0.882460     -0.012536     -0.113332
  C       1.435240      1.108501      0.698701
  O       1.964070      0.670790      1.873738
  C      -1.159968     -0.127012      1.318643
  C      -2.025250      0.666663      0.558203
  C      -3.006309      1.423742      1.184471
  C      -3.134226      1.394629      2.574190
  C      -2.280142      0.600042      3.331973
  C      -1.294198     -0.158996      2.707721
  C       1.370127      2.378588      0.291125
  H       0.495968     -1.484998      1.429758
  H       0.428922      0.362355     -1.030349
  H      -1.940838      0.682244     -0.525441
  H      -3.675944      2.037203      0.588455
  H      -3.903694      1.986585      3.061047
  H      -2.378417      0.568798      4.413789
  H      -0.622208     -0.775455      3.299194
  H       0.929225      2.617253     -0.668644
  H       2.304572      1.423118      2.378468
  H       1.746816      3.189032      0.908062
  Br     -0.827412     -2.324445     -0.520394
  Br      1.780809     -0.868746     -3.644835
  Br      1.166234     -0.618047     -5.948808
25
Coordinates from ORCA-job orca_input E -10758.759831341000
  Br      2.465596     -1.105320     -0.787608
  C      -0.053981     -0.915288      0.679848
  C       0.882381     -0.011587     -0.113790
  C       1.434591      1.110092      0.698215
  O       1.961733      0.672972      1.874630
  C      -1.159796     -0.126768      1.318930
  C      -2.023849      0.668470      0.559470
  C      -3.005576      1.424632      1.185845
  C      -3.135019      1.393143      2.574892
  C      -2.280714      0.598038      3.333409
  C      -1.295072     -0.160970      2.707655
  C       1.371520      2.379685      0.288873
  H       0.495983     -1.484770      1.428551
  H       0.429889      0.362468     -1.032284
  H      -1.938327      0.685714     -0.524015
  H      -3.674535      2.039122      0.590272
  H      -3.904931      1.984479      3.062021
  H      -2.380272      0.564821      4.414441
  H      -0.623818     -0.778530      3.298557
  H       0.932152      2.617734     -0.672105
  H       2.302443      1.425357      2.379021
  H       1.748808      3.189981      0.905177
  Br     -0.828569     -2.322870     -0.522272
  Br      1.779513     -0.868577     -3.643797
  Br      1.166030     -0.622798     -5.947185
25
Coordinates from ORCA-job orca_input E -10758.759832048807
  Br      2.465447     -1.105955     -0.787795
  C      -0.053142     -0.916145      0.681350
  C       0.882908     -0.013066     -0.113191
  C       1.435299      1.109039      0.698021
  O       1.963071      0.672527      1.874311
  C      -1.158968     -0.126971      1.319232
  C      -2.023250      0.667328      0.558519
  C      -3.005213      1.424088      1.184422
  C      -3.135440      1.393589      2.573149
  C      -2.281260      0.599260      3.332538
  C      -1.295176     -0.160226      2.707660
  C       1.371927      2.378396      0.288342
  H       0.497066     -1.485054      1.431371
  H       0.429574      0.360303     -1.031298
  H      -1.937268      0.683739     -0.524929
  H      -3.674233      2.037872      0.587986
  H      -3.905606      1.985409      3.059823
  H      -2.381289      0.566955      4.413647
  H      -0.624120     -0.777325      3.299324
  H       0.931794      2.616016     -0.672313
  H       2.303684      1.425300      2.378504
  H       1.749321      3.189270      0.904459
  Br     -0.827662     -2.325258     -0.520177
  Br      1.777737     -0.864369     -3.641826
  Br      1.160981     -0.615495     -5.944380
25
Coordinates from ORCA-job orca_input E -10758.759833006605
  Br      2.466083     -1.107133     -0.787354
  C      -0.052801     -0.916675      0.682102
  C       0.883415     -0.014015     -0.112476
  C       1.435944      1.108051      0.698523
  O       1.963675      0.671883      1.874980
  C      -1.158682     -0.126980      1.319313
  C      -2.023326      0.665901      0.557927
  C      -3.005813      1.422557      1.182850
  C      -3.135812      1.393731      2.571603
  C      -2.281135      0.600998      3.331680
  C      -1.294497     -0.158427      2.707982
  C       1.372847      2.377246      0.288427
  H       0.496944     -1.485569      1.432122
  H       0.429918      0.358961     -1.030597
  H      -1.937521      0.680911     -0.525570
  H      -3.675355      2.034975      0.585736
  H      -3.906480      1.985347      3.057343
  H      -2.381087      0.569935      4.412742
  H      -0.622976     -0.774298      3.300478
  H       0.932717      2.614548     -0.672376
  H       2.304584      1.424661      2.378869
  H       1.750719      3.188126      0.904122
  Br     -0.827490     -2.325585     -0.519018
  Br      1.776509     -0.861392     -3.640740
  Br      1.155797     -0.608528     -5.941918
25
Coordinates from ORCA-job orca_input E -10758.759833966667
  Br      2.466966     -1.107202     -0.787781
  C      -0.052132     -0.916655      0.682897
  C       0.884408     -0.014037     -0.111720
  C       1.437677      1.107481      0.699499
  O       1.965583      0.670518      1.875524
  C      -1.158159     -0.126557      1.319515
  C      -2.023552      0.664322      0.556964
  C      -3.007359      1.420188      1.180528
  C      -3.137344      1.393163      2.569531
  C      -2.281566      0.602796      3.330889
  C      -1.293923     -0.156254      2.708337
  C       1.375184      2.377027      0.289939
  H       0.497055     -1.485826      1.432681
  H       0.430455      0.358868     -1.029626
  H      -1.937664      0.677834     -0.526686
  H      -3.677552      2.030800      0.582725
  H      -3.908971      1.984251      3.054357
  H      -2.381677      0.573061      4.412044
  H      -0.621789     -0.770530      3.301841
  H       0.934783      2.614939     -0.670545
  H       2.307202      1.422817      2.379451
  H       1.754065      3.187445      0.905622
  Br     -0.827632     -2.325046     -0.518354
  Br      1.773780     -0.859669     -3.640676
  Br      1.148342     -0.604503     -5.940206
