25
Coordinates from ORCA-job orca_input E -10758.759833966667
  Br          2.46696557906972     -1.10720179509464     -0.78778075373358
  C          -0.05213206736938     -0.91665528023333      0.68289679684934
  C           0.88440829555463     -0.01403670466417     -0.11171991638234
  C           1.43767668380106      1.10748132580094      0.69949909916985
  O           1.96558267158351      0.67051770962561      1.87552361393595
  C          -1.15815947889975     -0.12655748445476      1.31951464133784
  C          -2.02355183857586      0.66432177656774      0.55696387948206
  C          -3.00735896125449      1.42018792662008      1.18052834271395
  C          -3.13734402352208      1.39316291104894      2.56953093624229
  C          -2.28156602071943      0.60279637645511      3.33088890689363
  C          -1.29392317969156     -0.15625390139245      2.70833652012666
  C           1.37518423909965      2.37702678833727      0.28993925450485
  H           0.49705494811300     -1.48582567983756      1.43268115304002
  H           0.43045509399769      0.35886786674591     -1.02962556114299
  H          -1.93766399716202      0.67783380575396     -0.52668560432464
  H          -3.67755217131167      2.03079972660151      0.58272480769808
  H          -3.90897089878822      1.98425068017677      3.05435652021133
  H          -2.38167731226408      0.57306091059260      4.41204414394888
  H          -0.62178850397643     -0.77053031996255      3.30184085008000
  H           0.93478336068582      2.61493920198706     -0.67054476741645
  H           2.30720174507918      1.42281713224457      2.37945079568184
  H           1.75406537259641      3.18744542837721      0.90562172017219
  Br         -0.82763169907496     -2.32504600100629     -0.51835406059293
  Br          1.77377993499108     -0.85966923950698     -3.64067577324319
  Br          1.14834222803821     -0.60450316078262     -5.94020554525270
