25
prod_unopt
Br      1.73536     -0.49236      -1.06604
 C     -0.19518      0.11452       0.38777
 C      0.91481      1.15457      -0.33809
 C      1.91125      1.95251       0.42851
 O      2.37565      1.29589       1.51191
 C     -1.31808      0.20430       1.17793
 C     -2.19148      1.32357       1.16472
 C     -3.27843      1.34156       1.98928
 C     -3.51922      0.25967       2.83801
 C     -2.68199     -0.84994       2.87163
 C     -1.59023     -0.88399       2.04827
 C      2.24912      3.17557       0.04802
 H      0.51548     -1.08636       0.43186
 H      0.55181      1.70928      -1.19155
 H     -2.00331      2.15710       0.50535
 H     -3.95154      2.18600       1.99006
 H     -4.38387      0.28690       3.48810
 H     -2.89543     -1.67159       3.53890
 H     -0.92135     -1.73394       2.04863
 H      1.81345      3.60614      -0.84045
 H      3.01767      1.83185       1.98827
 H      2.96297      3.75959       0.61340
Br     -1.05771     -0.46016      -1.26970
Br      0.78926     -2.18587      -2.58457
Br      1.81717     -4.27558      -3.72347
