23
Coordinates from ORCA-job orca_input E -5612.284635269649
  Br         -1.49962053140109      3.17726789064685      1.05510782599518
  C          -0.05272464209395      0.71369410207640      0.88551263640623
  C          -0.22684596448356      1.85305991639383      1.84609705730268
  C           1.04407778611077      2.66860327234118      2.09965690215770
  O           1.87052075905058      2.81447061984224      1.22016668806739
  C          -1.26879332651499     -0.02741533765381      0.46986776541855
  C          -1.44050344004889     -0.33019625905988     -0.87886967002915
  C          -2.57678933440678     -0.99980369123926     -1.31062784325085
  C          -3.54925008512904     -1.37783912425927     -0.39569144537752
  C          -3.37967854618291     -1.08626878511882      0.95373091953659
  C          -2.24705234780019     -0.41664409298789      1.38482016671096
  C           1.17456377950116      3.24334117167428      3.46850511132110
  H           0.54251489956080      1.02573841942103      0.03707377008023
  H          -0.70267560363769      1.55641600009838      2.77142093392450
  H          -0.68240754371955     -0.03460354935322     -1.59212847290736
  H          -2.70083354055702     -1.22472358245368     -2.36113316313901
  H          -4.43525996839184     -1.90057626465551     -0.73002440611197
  H          -4.13278908284572     -1.38260859541741      1.67107838097679
  H          -2.12038506703358     -0.20837692819542      2.43863643128237
  H           0.24177896965226      3.70587362881749      3.78681405703272
  H           1.37275630895691      2.42580494996493      4.16488512630916
  H           1.98849962697354      3.95875956987681      3.51183938730332
  Br          1.21484689444084     -0.54778333075930      1.86795184099033
