23
Coordinates from ORCA-job orca_input E -5612.243210006989
  Br     -1.339400      3.860950      1.267860
  C      -0.611650      1.394450      0.570780
  C      -0.457600      2.189530      1.795120
  C       1.013640      2.526610      2.125040
  O       1.854940      2.410700      1.276410
  C      -1.514750      0.381270      0.336710
  C      -1.490340     -0.238070     -0.946850
  C      -2.351640     -1.263800     -1.233790
  C      -3.251050     -1.688430     -0.256890
  C      -3.300750     -1.097540      1.010460
  C      -2.447380     -0.073850      1.313580
  C       1.268790      2.965340      3.529310
  H       0.080010      1.660690     -0.223460
  H      -0.992790      1.821900      2.662800
  H      -0.782090      0.113810     -1.685490
  H      -2.337970     -1.740000     -2.203430
  H      -3.931870     -2.499090     -0.484170
  H      -4.012010     -1.452700      1.742160
  H      -2.485350      0.385860      2.290780
  H       0.543990      3.719790      3.838100
  H       1.140510      2.103030      4.188920
  H       2.281000      3.348680      3.623390
  Br      1.557710     -1.222940      1.827350
23
Coordinates from ORCA-job orca_input E -5612.244781204638
  Br     -1.339913      3.874009      1.264719
  C      -0.590530      1.380678      0.574510
  C      -0.444127      2.183496      1.791119
  C       1.022028      2.537387      2.126440
  O       1.874757      2.444620      1.276545
  C      -1.513370      0.377664      0.334594
  C      -1.498474     -0.239549     -0.948230
  C      -2.361588     -1.267729     -1.232296
  C      -3.259725     -1.695599     -0.255394
  C      -3.304865     -1.097779      1.008119
  C      -2.448850     -0.071263      1.308085
  C       1.262878      2.964112      3.534762
  H       0.093438      1.649349     -0.220947
  H      -0.978300      1.818608      2.657510
  H      -0.791678      0.109594     -1.687628
  H      -2.348590     -1.744250     -2.201208
  H      -3.939440     -2.506719     -0.479188
  H      -4.013840     -1.450105      1.742543
  H      -2.483847      0.388694      2.283531
  H       0.534624      3.711463      3.844866
  H       1.132149      2.098003      4.185677
  H       2.271218      3.348552      3.641326
  Br      1.559992     -1.207047      1.815236
23
Coordinates from ORCA-job orca_input E -5612.246341708174
  Br     -1.337651      3.874589      1.262481
  C      -0.557336      1.353208      0.580867
  C      -0.420980      2.163893      1.787101
  C       1.031952      2.555397      2.128496
  O       1.896501      2.507041      1.277376
  C      -1.509609      0.368314      0.332495
  C      -1.507765     -0.245021     -0.949442
  C      -2.377196     -1.270943     -1.231251
  C      -3.276234     -1.700453     -0.255273
  C      -3.312665     -1.095439      1.004244
  C      -2.449818     -0.070055      1.301352
  C       1.254441      2.966244      3.541462
  H       0.119173      1.623118     -0.219034
  H      -0.957370      1.806932      2.653833
  H      -0.801748      0.099642     -1.690899
  H      -2.367187     -1.745141     -2.201250
  H      -3.957360     -2.510206     -0.475579
  H      -4.021173     -1.440520      1.742405
  H      -2.480609      0.390053      2.276232
  H       0.515957      3.700648      3.854627
  H       1.125915      2.093311      4.182255
  H       2.256791      3.358864      3.664156
  Br      1.567922     -1.177286      1.798037
23
Coordinates from ORCA-job orca_input E -5612.247216001811
  Br     -1.335772      3.862375      1.260507
  C      -0.537389      1.332504      0.585069
  C      -0.406010      2.146261      1.786478
  C       1.036155      2.566823      2.129748
  O       1.902942      2.549686      1.277998
  C      -1.505668      0.359929      0.332143
  C      -1.510959     -0.250632     -0.949983
  C      -2.386831     -1.271115     -1.232098
  C      -3.287817     -1.698660     -0.256718
  C      -3.318520     -1.092221      1.002049
  C      -2.449263     -0.071575      1.298940
  C       1.250452      2.970334      3.545287
  H       0.137034      1.600916     -0.217608
  H      -0.945515      1.796008      2.653975
  H      -0.804722      0.090846     -1.692878
  H      -2.380019     -1.742426     -2.203689
  H      -3.972624     -2.505254     -0.476552
  H      -4.028463     -1.431402      1.741788
  H      -2.477701      0.387990      2.274326
  H       0.503064      3.694937      3.860928
  H       1.127537      2.093229      4.181724
  H       2.248144      3.372474      3.675240
  Br      1.575896     -1.154836      1.788014
23
Coordinates from ORCA-job orca_input E -5612.248517453022
  Br     -1.333936      3.833184      1.255751
  C      -0.509844      1.299938      0.591680
  C      -0.384751      2.117312      1.787990
  C       1.040454      2.582807      2.131477
  O       1.904719      2.611776      1.278418
  C      -1.497899      0.345292      0.332966
  C      -1.512784     -0.260781     -0.950317
  C      -2.400606     -1.269609     -1.234988
  C      -3.305593     -1.691161     -0.260506
  C      -3.328060     -1.086181      0.999041
  C      -2.447088     -0.076370      1.297382
  C       1.246305      2.978845      3.550642
  H       0.164140      1.564276     -0.214009
  H      -0.929655      1.777214      2.656514
  H      -0.805474      0.075760     -1.695005
  H      -2.399663     -1.735586     -2.209438
  H      -3.998670     -2.490462     -0.481592
  H      -4.041554     -1.416098      1.739938
  H      -2.472265      0.381543      2.274133
  H       0.484218      3.687455      3.869974
  H       1.135741      2.096374      4.182674
  H       2.235887      3.399066      3.687660
  Br      1.590325     -1.118405      1.774305
23
Coordinates from ORCA-job orca_input E -5612.250404120487
  Br     -1.335949      3.781706      1.245741
  C      -0.471238      1.252087      0.602591
  C      -0.356072      2.075557      1.792836
  C       1.044571      2.604080      2.133335
  O       1.898813      2.696948      1.276908
  C      -1.483900      0.322420      0.336058
  C      -1.512201     -0.276615     -0.949492
  C      -2.419547     -1.265745     -1.240005
  C      -3.331395     -1.675853     -0.267239
  C      -3.342468     -1.076096      0.994821
  C      -2.442336     -0.085073      1.296860
  C       1.241557      2.991917      3.557514
  H       0.205168      1.509050     -0.204543
  H      -0.907281      1.747471      2.662264
  H      -0.802342      0.052398     -1.695772
  H      -2.427842     -1.723497     -2.218522
  H      -4.038823     -2.461796     -0.491951
  H      -4.062267     -1.392629      1.735775
  H      -2.462750      0.369725      2.275735
  H       0.458326      3.676028      3.882054
  H       1.152600      2.102996      4.184494
  H       2.217821      3.440894      3.700611
  Br      1.611507     -1.059785      1.754618
23
Coordinates from ORCA-job orca_input E -5612.253124464093
  Br     -1.347886      3.701383      1.228513
  C      -0.416233      1.184171      0.620752
  C      -0.317769      2.019105      1.802014
  C       1.047310      2.631704      2.134581
  O       1.879689      2.809857      1.271859
  C      -1.460756      0.288477      0.343142
  C      -1.507791     -0.299749     -0.945400
  C      -2.444206     -1.258416     -1.246587
  C      -3.367451     -1.650213     -0.277694
  C      -3.363005     -1.060310      0.988715
  C      -2.433948     -0.098769      1.297327
  C       1.235769      3.009296      3.564921
  H       0.265518      1.431780     -0.186486
  H      -0.874195      1.703135      2.672638
  H      -0.792649      0.017998     -1.692117
  H      -2.465277     -1.703968     -2.230663
  H      -4.096877     -2.414154     -0.509421
  H      -4.092838     -1.357708      1.727986
  H      -2.447532      0.351088      2.279203
  H       0.424603      3.657816      3.896815
  H       1.180706      2.113080      4.185565
  H       2.191491      3.499491      3.712467
  Br      1.637278     -0.968904      1.726558
23
Coordinates from ORCA-job orca_input E -5612.256043584657
  Br     -1.372155      3.613273      1.209244
  C      -0.363994      1.118409      0.641229
  C      -0.284342      1.968688      1.813735
  C       1.046290      2.655662      2.134442
  O       1.848377      2.907194      1.263608
  C      -1.434992      0.253099      0.353057
  C      -1.498787     -0.323511     -0.938123
  C      -2.464969     -1.248802     -1.252812
  C      -3.401264     -1.620074     -0.289457
  C      -3.382499     -1.043123      0.982437
  C      -2.423504     -0.114216      1.299452
  C       1.232477      3.025327      3.569350
  H       0.323213      1.359552     -0.165160
  H      -0.840919      1.658609      2.686383
  H      -0.775911     -0.017972     -1.682957
  H      -2.497949     -1.681674     -2.242219
  H      -4.153748     -2.358913     -0.530318
  H      -4.123305     -1.321954      1.718032
  H      -2.430299      0.329775      2.284629
  H       0.396970      3.639520      3.908460
  H       1.213599      2.124415      4.185139
  H       2.167001      3.555351      3.716033
  Br      1.654660     -0.872447      1.700505
23
Coordinates from ORCA-job orca_input E -5612.258351472790
  Br     -1.400296      3.545767      1.192957
  C      -0.335221      1.077638      0.655973
  C      -0.270967      1.944014      1.825248
  C       1.043356      2.668543      2.134501
  O       1.818840      2.953225      1.254061
  C      -1.415731      0.227239      0.361788
  C      -1.488051     -0.340528     -0.931741
  C      -2.475448     -1.240830     -1.257956
  C      -3.421073     -1.595428     -0.299089
  C      -3.394326     -1.030975      0.977996
  C      -2.414065     -0.126874      1.303114
  C       1.234102      3.036140      3.571339
  H       0.356820      1.316432     -0.146943
  H      -0.821446      1.630076      2.700293
  H      -0.758379     -0.043589     -1.673649
  H      -2.517106     -1.665193     -2.250514
  H      -4.190669     -2.314118     -0.548151
  H      -4.144115     -1.298868      1.708219
  H      -2.416304      0.312273      2.290708
  H       0.385824      3.630364      3.914912
  H       1.240824      2.134540      4.185502
  H       2.155093      3.591207      3.711152
  Br      1.662288     -0.804868      1.684972
23
Coordinates from ORCA-job orca_input E -5612.260204780328
  Br     -1.431078      3.507407      1.185393
  C      -0.324337      1.057631      0.666973
  C      -0.276923      1.944872      1.835918
  C       1.041498      2.674446      2.135266
  O       1.800227      2.961611      1.241860
  C      -1.403961      0.209606      0.368392
  C      -1.477259     -0.351498     -0.927459
  C      -2.478492     -1.237011     -1.261458
  C      -3.430365     -1.580422     -0.307099
  C      -3.400444     -1.024737      0.972953
  C      -2.407234     -0.135118      1.306607
  C       1.239311      3.041685      3.571568
  H       0.371351      1.297454     -0.127773
  H      -0.811694      1.615802      2.714258
  H      -0.742151     -0.060475     -1.665947
  H      -2.526118     -1.657883     -2.254776
  H      -4.210692     -2.285121     -0.562320
  H      -4.157915     -1.288954      1.695848
  H      -2.406753      0.300513      2.295127
  H       0.389795      3.630492      3.918556
  H       1.259378      2.141572      4.185299
  H       2.156170      3.605254      3.700816
  Br      1.661637     -0.760937      1.676690
23
Coordinates from ORCA-job orca_input E -5612.262874022363
  Br     -1.467839      3.458390      1.185042
  C      -0.296964      1.024929      0.686746
  C      -0.276503      1.936763      1.846376
  C       1.037547      2.684027      2.133978
  O       1.778595      2.989426      1.227730
  C      -1.387798      0.185840      0.378279
  C      -1.466049     -0.366217     -0.919540
  C      -2.484360     -1.231391     -1.264246
  C      -3.447054     -1.562855     -0.317520
  C      -3.410880     -1.015755      0.965212
  C      -2.400802     -0.145576      1.308264
  C       1.242250      3.049298      3.568038
  H       0.402182      1.267171     -0.099751
  H      -0.791288      1.591970      2.730009
  H      -0.723531     -0.083743     -1.653482
  H      -2.537187     -1.645632     -2.259979
  H      -4.240286     -2.249724     -0.580504
  H      -4.177495     -1.271857      1.681198
  H      -2.396552      0.285019      2.298422
  H       0.388984      3.627961      3.920806
  H       1.280599      2.149642      4.180095
  H       2.152637      3.624954      3.687825
  Br      1.655745     -0.696450      1.661692
23
Coordinates from ORCA-job orca_input E -5612.266982512235
  Br     -1.524486      3.410115      1.209490
  C      -0.262456      0.984837      0.721210
  C      -0.289320      1.937770      1.859675
  C       1.027076      2.691539      2.130024
  O       1.752244      3.001229      1.205401
  C      -1.368156      0.151302      0.394909
  C      -1.446944     -0.386695     -0.905779
  C      -2.485354     -1.224185     -1.266874
  C      -3.466849     -1.542346     -0.334958
  C      -3.422779     -1.006573      0.951092
  C      -2.392670     -0.162282      1.310801
  C       1.249410      3.059777      3.555472
  H       0.432438      1.241924     -0.059430
  H      -0.763791      1.565213      2.754762
  H      -0.691760     -0.117482     -1.631505
  H      -2.540228     -1.628890     -2.266698
  H      -4.275636     -2.204959     -0.610559
  H      -4.202326     -1.252287      1.657063
  H      -2.384649      0.259244      2.304446
  H       0.398805      3.635089      3.918319
  H       1.306853      2.162125      4.168495
  H       2.158708      3.640898      3.657286
  Br      1.625821     -0.609173      1.642047
23
Coordinates from ORCA-job orca_input E -5612.271317359186
  Br     -1.567770      3.347999      1.227773
  C      -0.219418      0.938906      0.755456
  C      -0.286579      1.920937      1.868128
  C       1.014822      2.700416      2.123535
  O       1.724684      3.027686      1.189611
  C      -1.347181      0.118993      0.411848
  C      -1.431988     -0.405418     -0.890003
  C      -2.487531     -1.214226     -1.268542
  C      -3.486828     -1.519672     -0.349832
  C      -3.434195     -0.995693      0.940398
  C      -2.384400     -0.179281      1.312278
  C       1.252287      3.071588      3.542930
  H       0.461214      1.213454     -0.030690
  H      -0.733837      1.537744      2.773642
  H      -0.665310     -0.149100     -1.608635
  H      -2.541953     -1.606393     -2.273848
  H      -4.310039     -2.158558     -0.637699
  H      -4.223471     -1.226628      1.641205
  H      -2.373783      0.233008      2.310206
  H       0.399292      3.637396      3.916011
  H       1.329768      2.174814      4.155926
  H       2.156170      3.663415      3.633704
  Br      1.589997     -0.525197      1.621287
23
Coordinates from ORCA-job orca_input E -5612.275643054970
  Br     -1.607781      3.281096      1.237536
  C      -0.177993      0.894119      0.789091
  C      -0.285332      1.905893      1.876158
  C       1.002329      2.708172      2.116522
  O       1.696233      3.048007      1.173672
  C      -1.326180      0.089036      0.429080
  C      -1.416924     -0.421355     -0.873406
  C      -2.487588     -1.203155     -1.270005
  C      -3.502169     -1.495654     -0.363076
  C      -3.442399     -0.985015      0.932023
  C      -2.373939     -0.195618      1.315017
  C       1.254855      3.081531      3.531180
  H       0.478901      1.191206     -0.006956
  H      -0.706498      1.515151      2.791280
  H      -0.639185     -0.177457     -1.584843
  H      -2.541457     -1.583270     -2.280177
  H      -4.338463     -2.111566     -0.662733
  H      -4.240276     -1.202598      1.627613
  H      -2.361382      0.207205      2.317168
  H       0.401236      3.639936      3.914131
  H       1.349341      2.185698      4.143234
  H       2.154267      3.681796      3.611052
  Br      1.544354     -0.446967      1.601130
23
Coordinates from ORCA-job orca_input E -5612.280743796297
  Br     -1.613237      3.268478      1.265455
  C      -0.155385      0.863922      0.824260
  C      -0.292452      1.908219      1.878306
  C       0.991691      2.709039      2.111024
  O       1.701136      3.015170      1.168825
  C      -1.321534      0.063930      0.442831
  C      -1.403774     -0.428780     -0.864711
  C      -2.476613     -1.198933     -1.270546
  C      -3.500684     -1.491082     -0.376648
  C      -3.438361     -0.989978      0.919581
  C      -2.366586     -0.212739      1.322552
  C       1.266677      3.094203      3.520270
  H       0.409459      1.227458     -0.018210
  H      -0.698767      1.528695      2.807186
  H      -0.617885     -0.196728     -1.573506
  H      -2.520289     -1.569376     -2.285383
  H      -4.340945     -2.096603     -0.686663
  H      -4.239151     -1.199846      1.614957
  H      -2.361746      0.177911      2.331193
  H       0.427595      3.668164      3.914947
  H       1.350838      2.199197      4.137422
  H       2.179254      3.675514      3.591290
  Br      1.454711     -0.409644      1.590258
23
Coordinates from ORCA-job orca_input E -5612.282692199294
  Br     -1.624421      3.205184      1.251768
  C      -0.107481      0.816069      0.850699
  C      -0.269927      1.881310      1.878490
  C       0.985524      2.722427      2.105201
  O       1.690213      3.049157      1.169169
  C      -1.303493      0.038476      0.454014
  C      -1.394021     -0.439648     -0.852741
  C      -2.477882     -1.190426     -1.271297
  C      -3.511210     -1.470813     -0.383595
  C      -3.443851     -0.982333      0.916198
  C      -2.355045     -0.229746      1.326447
  C       1.266570      3.106207      3.516687
  H       0.390550      1.220669     -0.020880
  H      -0.678240      1.521816      2.814588
  H      -0.600576     -0.219971     -1.556738
  H      -2.519223     -1.548951     -2.290877
  H      -4.360977     -2.059230     -0.701951
  H      -4.246748     -1.178308      1.614081
  H      -2.347332      0.148833      2.339866
  H       0.424240      3.670930      3.919768
  H       1.356624      2.207661      4.128960
  H       2.174791      3.694139      3.589639
  Br      1.385865     -0.357263      1.567195
23
Coordinates from ORCA-job orca_input E -5612.282880403398
  Br     -1.596081      3.253585      1.254071
  C      -0.135274      0.838516      0.835602
  C      -0.272399      1.897713      1.874972
  C       0.994345      2.722784      2.108563
  O       1.718195      3.019845      1.181991
  C      -1.317865      0.040688      0.445399
  C      -1.391594     -0.438035     -0.862950
  C      -2.471001     -1.199145     -1.272356
  C      -3.499522     -1.481432     -0.381473
  C      -3.438265     -0.993497      0.917380
  C      -2.356251     -0.235321      1.333471
  C       1.274863      3.107637      3.523957
  H       0.325687      1.268758     -0.053092
  H      -0.698632      1.551986      2.808825
  H      -0.596680     -0.220699     -1.565751
  H      -2.509142     -1.562592     -2.290503
  H      -4.344834     -2.077895     -0.698593
  H      -4.236821     -1.195671      1.618974
  H      -2.345097      0.136952      2.349223
  H       0.439855      3.684977      3.926577
  H       1.343889      2.206290      4.136568
  H       2.193098      3.679634      3.601562
  Br      1.353476     -0.398885      1.572273
23
Coordinates from ORCA-job orca_input E -5612.282484434445
  Br     -1.658984      3.259000      1.264522
  C      -0.160193      0.862252      0.835348
  C      -0.325912      1.941425      1.881382
  C       0.986008      2.712496      2.105409
  O       1.701338      2.971181      1.157008
  C      -1.306998      0.035369      0.455765
  C      -1.370185     -0.442895     -0.848294
  C      -2.458204     -1.192843     -1.271108
  C      -3.496472     -1.464827     -0.384431
  C      -3.434544     -0.987463      0.921393
  C      -2.340636     -0.242624      1.339458
  C       1.274458      3.095026      3.511673
  H       0.356224      1.274802     -0.023601
  H      -0.703146      1.540651      2.812501
  H      -0.562788     -0.228829     -1.534698
  H      -2.502483     -1.558863     -2.287614
  H      -4.348679     -2.046845     -0.707413
  H      -4.241683     -1.198063      1.609731
  H      -2.307888      0.120661      2.355119
  H       0.452302      3.687178      3.912901
  H       1.344393      2.196951      4.125350
  H       2.201308      3.655369      3.568782
  Br      1.336712     -0.382920      1.565506
23
Coordinates from ORCA-job orca_input E -5612.283630360546
  Br     -1.630137      3.239015      1.248267
  C      -0.134266      0.844224      0.831465
  C      -0.283028      1.905585      1.878046
  C       0.994149      2.724298      2.106624
  O       1.707611      3.031364      1.170515
  C      -1.309066      0.039453      0.448946
  C      -1.386474     -0.441870     -0.856178
  C      -2.473844     -1.194475     -1.271928
  C      -3.505739     -1.467862     -0.381506
  C      -3.440581     -0.986624      0.921489
  C      -2.348678     -0.238273      1.334489
  C       1.267613      3.102578      3.520247
  H       0.379992      1.246458     -0.032930
  H      -0.689385      1.532964      2.808648
  H      -0.582553     -0.227623     -1.548481
  H      -2.519296     -1.559926     -2.288426
  H      -4.357547     -2.053024     -0.700751
  H      -4.242799     -1.192510      1.616566
  H      -2.317375      0.127638      2.350745
  H       0.429492      3.674683      3.919512
  H       1.345707      2.201057      4.128625
  H       2.181470      3.681473      3.593926
  Br      1.348683     -0.382415      1.566782
23
Coordinates from ORCA-job orca_input E -5612.283736959236
  Br     -1.617642      3.243548      1.248709
  C      -0.130199      0.841845      0.831492
  C      -0.276174      1.902860      1.876317
  C       0.997030      2.724242      2.107639
  O       1.717378      3.024006      1.176389
  C      -1.311517      0.038030      0.446775
  C      -1.387815     -0.441342     -0.859835
  C      -2.474615     -1.194815     -1.272685
  C      -3.504601     -1.468914     -0.382115
  C      -3.437823     -0.990127      0.920468
  C      -2.347115     -0.242270      1.336572
  C       1.268417      3.107870      3.521978
  H       0.358835      1.259109     -0.042643
  H      -0.690096      1.538194      2.807256
  H      -0.583595     -0.229018     -1.552675
  H      -2.519329     -1.559778     -2.289658
  H      -4.356947     -2.053596     -0.701551
  H      -4.237949     -1.196732      1.618215
  H      -2.314251      0.119457      2.354786
  H       0.429218      3.680524      3.919581
  H       1.343209      2.206163      4.131627
  H       2.182690      3.685925      3.598582
  Br      1.326840     -0.388991      1.569467
23
Coordinates from ORCA-job orca_input E -5612.283853817382
  Br     -1.614504      3.244162      1.245700
  C      -0.127734      0.843999      0.825297
  C      -0.270957      1.900521      1.874990
  C       1.000315      2.724912      2.108696
  O       1.720506      3.029695      1.178418
  C      -1.311759      0.040451      0.443503
  C      -1.390530     -0.441008     -0.862908
  C      -2.478817     -1.194065     -1.273196
  C      -3.506582     -1.467231     -0.380288
  C      -3.436541     -0.989546      0.922671
  C      -2.344701     -0.242632      1.336797
  C       1.263795      3.109121      3.524105
  H       0.372844      1.253067     -0.044378
  H      -0.687638      1.533681      2.803421
  H      -0.586707     -0.228522     -1.556040
  H      -2.526827     -1.560091     -2.289595
  H      -4.360338     -2.050731     -0.697988
  H      -4.235424     -1.197810      1.621260
  H      -2.306436      0.117705      2.355203
  H       0.419591      3.676328      3.918373
  H       1.342174      2.207402      4.132973
  H       2.173908      3.693169      3.603787
  Br      1.326313     -0.396386      1.573888
23
Coordinates from ORCA-job orca_input E -5612.283982925651
  Br     -1.611348      3.242749      1.242106
  C      -0.119870      0.844652      0.817373
  C      -0.265289      1.898368      1.871994
  C       1.005191      2.723460      2.110567
  O       1.727797      3.027332      1.181469
  C      -1.309460      0.042637      0.439161
  C      -1.393724     -0.439578     -0.867415
  C      -2.485753     -1.189617     -1.274354
  C      -3.509967     -1.462328     -0.377831
  C      -3.431872     -0.989146      0.926299
  C      -2.336557     -0.246181      1.338038
  C       1.255009      3.113793      3.526022
  H       0.393778      1.244877     -0.046380
  H      -0.682971      1.524470      2.796679
  H      -0.591627     -0.226432     -1.562089
  H      -2.540183     -1.555274     -2.290558
  H      -4.367150     -2.041996     -0.692918
  H      -4.228359     -1.200942      1.626548
  H      -2.288976      0.109663      2.357352
  H       0.402014      3.671833      3.913213
  H       1.341280      2.213793      4.135944
  H       2.157655      3.708769      3.609194
  Br      1.314330     -0.408711      1.584274
23
Coordinates from ORCA-job orca_input E -5612.284055879788
  Br     -1.606447      3.241130      1.240095
  C      -0.113345      0.842854      0.813487
  C      -0.261952      1.896637      1.869298
  C       1.008826      2.720095      2.112021
  O       1.736197      3.016543      1.184488
  C      -1.307313      0.043865      0.436410
  C      -1.396558     -0.436306     -0.871082
  C      -2.491182     -1.183611     -1.275975
  C      -3.512049     -1.458923     -0.376541
  C      -3.427059     -0.990730      0.928846
  C      -2.329548     -0.250512      1.339155
  C       1.248534      3.119929      3.526258
  H       0.406375      1.238624     -0.048066
  H      -0.680043      1.518347      2.791974
  H      -0.597840     -0.220858     -1.568925
  H      -2.550307     -1.546622     -2.292915
  H      -4.371293     -2.036405     -0.689728
  H      -4.220741     -1.206163      1.631245
  H      -2.277353      0.101127      2.359631
  H       0.388267      3.670574      3.907387
  H       1.342440      2.223037      4.139678
  H       2.144794      3.724381      3.610783
  Br      1.301545     -0.420823      1.597166
23
Coordinates from ORCA-job orca_input E -5612.284135610792
  Br     -1.599066      3.237157      1.236650
  C      -0.105321      0.836477      0.812935
  C      -0.258528      1.893722      1.866033
  C       1.012800      2.714941      2.112877
  O       1.748154      2.998780      1.187902
  C      -1.304418      0.044459      0.434572
  C      -1.400664     -0.429538     -0.874812
  C      -2.497964     -1.173210     -1.278836
  C      -3.514363     -1.455292     -0.376094
  C      -3.421228     -0.994847      0.931534
  C      -2.321650     -0.257159      1.340295
  C       1.241395      3.129425      3.524581
  H       0.420651      1.226637     -0.047416
  H      -0.676394      1.512954      2.787906
  H      -0.607812     -0.209060     -1.577792
  H      -2.562097     -1.529836     -2.297787
  H      -4.375157     -2.031255     -0.687710
  H      -4.210671     -1.215469      1.637204
  H      -2.266690      0.088544      2.362692
  H       0.372207      3.670092      3.899276
  H       1.346588      2.237997      4.144381
  H       2.129099      3.746507      3.608865
  Br      1.285080     -0.435836      1.617435
23
Coordinates from ORCA-job orca_input E -5612.284218044705
  Br     -1.588888      3.232528      1.229641
  C      -0.098587      0.826188      0.816477
  C      -0.254876      1.890275      1.862839
  C       1.017317      2.708959      2.112616
  O       1.763598      2.976274      1.191666
  C      -1.302203      0.044430      0.434014
  C      -1.406321     -0.418543     -0.878456
  C      -2.505662     -1.158940     -1.282997
  C      -3.516308     -1.452300     -0.376892
  C      -3.415498     -1.002516      0.934111
  C      -2.314935     -0.266016      1.341581
  C       1.234930      3.141445      3.520779
  H       0.434992      1.208377     -0.043326
  H      -0.673207      1.511602      2.785622
  H      -0.620665     -0.190215     -1.587116
  H      -2.574493     -1.505558     -2.305116
  H      -4.377420     -2.028064     -0.687956
  H      -4.199401     -1.230238      1.643732
  H      -2.258496      0.071479      2.366826
  H       0.356230      3.670131      3.890130
  H       1.354047      2.257338      4.148949
  H       2.112608      3.773088      3.602721
  Br      1.267189     -0.453535      1.644845
23
Coordinates from ORCA-job orca_input E -5612.284300468616
  Br     -1.577812      3.228377      1.217717
  C      -0.094869      0.813401      0.824279
  C      -0.251355      1.887155      1.860552
  C       1.021996      2.703495      2.110882
  O       1.780327      2.953321      1.194905
  C      -1.301374      0.043219      0.435166
  C      -1.412902     -0.404421     -0.881262
  C      -2.513429     -1.142434     -1.287996
  C      -3.517752     -1.449839     -0.379178
  C      -3.411026     -1.013224      0.936268
  C      -2.310542     -0.276768      1.343227
  C       1.230154      3.154149      3.515094
  H       0.448253      1.185275     -0.034781
  H      -0.671544      1.516042      2.785828
  H      -0.633583     -0.166630     -1.593896
  H      -2.586295     -1.476593     -2.313959
  H      -4.378070     -2.026239     -0.691386
  H      -4.189025     -1.249476      1.649516
  H      -2.251943      0.050006      2.372088
  H       0.342764      3.670183      3.881391
  H       1.364206      2.277912      4.151697
  H       2.097629      3.800310      3.592516
  Br      1.250142     -0.471031      1.676025
23
Coordinates from ORCA-job orca_input E -5612.284377341112
  Br     -1.566490      3.225610      1.200307
  C      -0.094131      0.799817      0.835250
  C      -0.247952      1.884771      1.859607
  C       1.026866      2.698872      2.108031
  O       1.797066      2.931210      1.197285
  C      -1.301954      0.040312      0.437880
  C      -1.419970     -0.388513     -0.883230
  C      -2.521199     -1.124630     -1.293503
  C      -3.519052     -1.446993     -0.382837
  C      -3.407869     -1.026265      0.937996
  C      -2.307862     -0.290007      1.345808
  C       1.226876      3.166967      3.508119
  H       0.460620      1.159766     -0.022033
  H      -0.672444      1.526034      2.787998
  H      -0.644737     -0.140718     -1.596901
  H      -2.598031     -1.444927     -2.323538
  H      -4.378249     -2.023621     -0.697993
  H      -4.180279     -1.272441      1.653796
  H      -2.243858      0.022946      2.378913
  H       0.331733      3.670169      3.873131
  H       1.376419      2.298317      4.152052
  H       2.084313      3.827084      3.579216
  Br      1.234135     -0.487569      1.709337
23
Coordinates from ORCA-job orca_input E -5612.284438736214
  Br     -1.555326      3.223669      1.179044
  C      -0.094070      0.786672      0.847489
  C      -0.244768      1.882773      1.859888
  C       1.031657      2.694680      2.105019
  O       1.812283      2.909708      1.198768
  C      -1.302697      0.035278      0.441765
  C      -1.426711     -0.373012     -0.884500
  C      -2.529123     -1.106176     -1.299011
  C      -3.521007     -1.442345     -0.387294
  C      -3.405229     -1.039969      0.939379
  C      -2.304778     -0.306216      1.349799
  C       1.223878      3.179962      3.500629
  H       0.473300      1.134810     -0.006595
  H      -0.676102      1.538395      2.790626
  H      -0.653410     -0.115587     -1.596737
  H      -2.610825     -1.412219     -2.332944
  H      -4.380054     -2.017099     -0.706551
  H      -4.173003     -1.296985      1.656192
  H      -2.231031     -0.009760      2.387300
  H       0.321451      3.670341      3.864566
  H       1.389498      2.318366      4.150399
  H       2.071272      3.853622      3.564444
  Br      1.218745     -0.502716      1.743016
23
Coordinates from ORCA-job orca_input E -5612.284486450219
  Br     -1.544893      3.221143      1.156642
  C      -0.092718      0.774527      0.859402
  C      -0.242315      1.880578      1.860860
  C       1.035572      2.690473      2.102596
  O       1.824357      2.888759      1.199495
  C      -1.302184      0.028043      0.446538
  C      -1.432101     -0.359964     -0.884822
  C      -2.536776     -1.087873     -1.303850
  C      -3.523956     -1.435420     -0.391796
  C      -3.402499     -1.052474      0.940439
  C      -2.299858     -0.324689      1.355058
  C       1.220360      3.192731      3.493293
  H       0.485973      1.112906      0.009124
  H      -0.682176      1.549914      2.792527
  H      -0.659787     -0.093702     -1.594725
  H      -2.624324     -1.380041     -2.341286
  H      -4.384529     -2.005507     -0.715433
  H      -4.167061     -1.319988      1.656763
  H      -2.213947     -0.045481      2.396481
  H       0.311145      3.671138      3.855386
  H       1.401849      2.337777      4.147805
  H       2.058079      3.879021      3.549720
  Br      1.205741     -0.515682      1.774472
23
Coordinates from ORCA-job orca_input E -5612.284524580320
  Br     -1.536603      3.217127      1.136548
  C      -0.089276      0.764268      0.869065
  C      -0.241002      1.877796      1.861761
  C       1.037649      2.686683      2.101128
  O       1.831544      2.871426      1.199555
  C      -1.299601      0.019294      0.451637
  C      -1.435094     -0.351509     -0.883908
  C      -2.543078     -1.071961     -1.307126
  C      -3.527624     -1.427032     -0.395355
  C      -3.399826     -1.061512      0.941216
  C      -2.293243     -0.342712      1.360698
  C       1.216284      3.203481      3.487242
  H       0.496809      1.096644      0.021749
  H      -0.689572      1.557932      2.792909
  H      -0.663754     -0.078088     -1.592027
  H      -2.636476     -1.352229     -2.347330
  H      -4.391331     -1.990204     -0.722689
  H      -4.163026     -1.336958      1.656001
  H      -2.196268     -0.078253      2.404997
  H       0.301580      3.672576      3.846771
  H       1.410957      2.354332      4.145583
  H       2.046093      3.899793      3.537504
  Br      1.198807     -0.524705      1.798760
23
Coordinates from ORCA-job orca_input E -5612.284557299891
  Br     -1.526261      3.209709      1.112461
  C      -0.082208      0.751316      0.878953
  C      -0.239520      1.872973      1.861442
  C       1.039226      2.681669      2.100002
  O       1.839133      2.850942      1.200693
  C      -1.294006      0.007702      0.457951
  C      -1.437445     -0.343129     -0.882236
  C      -2.550755     -1.052277     -1.309980
  C      -3.532628     -1.415407     -0.398456
  C      -3.395557     -1.070689      0.942621
  C      -2.282961     -0.364835      1.367897
  C       1.209440      3.216224      3.480310
  H       0.510317      1.077706      0.034036
  H      -0.698687      1.564171      2.791013
  H      -0.669073     -0.061024     -1.590141
  H      -2.651846     -1.317831     -2.353354
  H      -4.401320     -1.968632     -0.729329
  H      -4.157410     -1.354449      1.655685
  H      -2.175116     -0.116831      2.415190
  H       0.288173      3.674765      3.835719
  H       1.418786      2.374875      4.144341
  H       2.029828      3.924105      3.524118
  Br      1.193840     -0.534864      1.825755
23
Coordinates from ORCA-job orca_input E -5612.284579703260
  Br     -1.520304      3.202274      1.096841
  C      -0.075317      0.742458      0.883451
  C      -0.238689      1.868656      1.859759
  C       1.039059      2.678730      2.099628
  O       1.842536      2.840709      1.202113
  C      -1.288098     -0.001263      0.462373
  C      -1.437471     -0.340249     -0.880168
  C      -2.555545     -1.039826     -1.310613
  C      -3.536513     -1.406462     -0.399360
  C      -3.392402     -1.074477      0.943987
  C      -2.274641     -0.378961      1.372732
  C       1.203432      3.223303      3.476626
  H       0.518414      1.066334      0.038491
  H      -0.704393      1.565200      2.787743
  H      -0.672042     -0.053219     -1.589261
  H      -2.661662     -1.295872     -2.355892
  H      -4.409524     -1.951746     -0.731830
  H      -4.153816     -1.361617      1.656261
  H      -2.162463     -0.139967      2.421642
  H       0.278501      3.676854      3.828515
  H       1.419587      2.387409      4.145410
  H       2.018831      3.937154      3.517527
  Br      1.196471     -0.539233      1.838717
23
Coordinates from ORCA-job orca_input E -5612.284601797741
  Br     -1.513459      3.192257      1.079255
  C      -0.066440      0.732039      0.886376
  C      -0.236975      1.863075      1.856025
  C       1.038728      2.675693      2.099340
  O       1.847388      2.831776      1.205390
  C      -1.280336     -0.011353      0.466919
  C      -1.437064     -0.337778     -0.877943
  C      -2.561293     -1.025933     -1.310535
  C      -3.540913     -1.396068     -0.399195
  C      -3.388444     -1.077683      0.946310
  C      -2.264791     -0.393558      1.377991
  C       1.195180      3.230291      3.473203
  H       0.527105      1.052734      0.040062
  H      -0.708921      1.564058      2.782248
  H      -0.675660     -0.045945     -1.589405
  H      -2.672976     -1.271171     -2.357852
  H      -4.418998     -1.932384     -0.732740
  H      -4.148745     -1.367501      1.658775
  H      -2.150314     -0.163600      2.428671
  H       0.266445      3.679816      3.820130
  H       1.415797      2.401008      4.148813
  H       2.005892      3.949635      3.512275
  Br      1.202744     -0.543217      1.850577
23
Coordinates from ORCA-job orca_input E -5612.284614875787
  Br     -1.508529      3.184908      1.067069
  C      -0.060391      0.724464      0.887287
  C      -0.234879      1.859181      1.852331
  C       1.038897      2.673865      2.099034
  O       1.852479      2.827263      1.208990
  C      -1.274980     -0.018128      0.469601
  C      -1.437008     -0.335983     -0.876726
  C      -2.565862     -1.016233     -1.310252
  C      -3.543931     -1.388861     -0.398526
  C      -3.385613     -1.079885      0.948440
  C      -2.258188     -0.402716      1.381395
  C       1.188598      3.234607      3.471179
  H       0.532812      1.042026      0.039517
  H      -0.709795      1.562374      2.777770
  H      -0.678057     -0.041661     -1.589758
  H      -2.681312     -1.253677     -2.358968
  H      -4.425369     -1.919334     -0.732579
  H      -4.144336     -1.371318      1.661942
  H      -2.142715     -0.179147      2.433328
  H       0.257440      3.682782      3.813518
  H       1.409512      2.410118      4.152593
  H       1.996891      3.956728      3.509893
  Br      1.208285     -0.545181      1.857612
23
Coordinates from ORCA-job orca_input E -5612.284623616011
  Br     -1.504499      3.180067      1.058500
  C      -0.056551      0.718894      0.887248
  C      -0.232388      1.856582      1.849090
  C       1.039766      2.672574      2.098758
  O       1.858157      2.824380      1.212749
  C      -1.271634     -0.022820      0.471026
  C      -1.437503     -0.334217     -0.876385
  C      -2.569890     -1.008958     -1.310115
  C      -3.546178     -1.383660     -0.397778
  C      -3.383540     -1.082015      0.950342
  C      -2.253728     -0.408992      1.383682
  C       1.183201      3.237730      3.469867
  H       0.536797      1.033340      0.038376
  H      -0.708367      1.560826      2.774397
  H      -0.679535     -0.038854     -1.589977
  H      -2.688196     -1.240425     -2.359855
  H      -4.429859     -1.910221     -0.732190
  H      -4.140370     -1.374916      1.665230
  H      -2.136654     -0.190985      2.436588
  H       0.250357      3.686396      3.807185
  H       1.401748      2.416806      4.156358
  H       1.990518      3.960938      3.508956
  Br      1.212297     -0.546283      1.862636
23
Coordinates from ORCA-job orca_input E -5612.284628124157
  Br     -1.502468      3.178371      1.055283
  C      -0.055114      0.716403      0.886731
  C      -0.230444      1.855502      1.847395
  C       1.040859      2.671845      2.098697
  O       1.862263      2.822884      1.215279
  C      -1.270501     -0.024927      0.471211
  C      -1.438194     -0.333157     -0.876723
  C      -2.572351     -1.005447     -1.310177
  C      -3.547408     -1.381158     -0.397246
  C      -3.382535     -1.083379      0.951472
  C      -2.251727     -0.411798      1.384530
  C       1.180164      3.239332      3.469400
  H       0.538637      1.029108      0.037491
  H      -0.706126      1.559635      2.772911
  H      -0.679917     -0.037990     -1.590011
  H      -2.692243     -1.234046     -2.360370
  H      -4.432074     -1.906014     -0.731828
  H      -4.138019     -1.377217      1.667371
  H      -2.132491     -0.197274      2.437902
  H       0.246668      3.689985      3.802353
  H       1.394963      2.420002      4.158920
  H       1.987973      3.961925      3.509283
  Br      1.214035     -0.546395      1.864815
23
Coordinates from ORCA-job orca_input E -5612.284630751936
  Br     -1.501207      3.177937      1.054404
  C      -0.054447      0.715204      0.886332
  C      -0.228985      1.854860      1.846646
  C       1.041994      2.671029      2.098827
  O       1.865401      2.820803      1.217058
  C      -1.270093     -0.025957      0.470933
  C      -1.438987     -0.332174     -0.877367
  C      -2.574053     -1.003303     -1.310376
  C      -3.548173     -1.379777     -0.396852
  C      -3.381778     -1.084490      0.952216
  C      -2.250427     -0.413544      1.384820
  C       1.178188      3.240645      3.469089
  H       0.539942      1.027062      0.037226
  H      -0.704387      1.558711      2.772281
  H      -0.680327     -0.037190     -1.590289
  H      -2.695203     -1.230338     -2.360765
  H      -4.433341     -1.903768     -0.731495
  H      -4.136326     -1.379207      1.668723
  H      -2.128681     -0.201574      2.438436
  H       0.244444      3.693850      3.797885
  H       1.389002      2.422123      4.160739
  H       1.987062      3.961986      3.509781
  Br      1.214334     -0.546696      1.866438
23
Coordinates from ORCA-job orca_input E -5612.284632940926
  Br     -1.500552      3.177781      1.054804
  C      -0.053830      0.714595      0.885881
  C      -0.227912      1.854201      1.846332
  C       1.042979      2.670086      2.099140
  O       1.867778      2.818411      1.218453
  C      -1.269681     -0.026615      0.470444
  C      -1.439662     -0.331440     -0.878044
  C      -2.575298     -1.001869     -1.310511
  C      -3.548723     -1.378871     -0.396376
  C      -3.380997     -1.085232      0.952856
  C      -2.249127     -0.414790      1.384800
  C       1.176587      3.241736      3.468908
  H       0.540962      1.026412      0.037043
  H      -0.703219      1.557636      2.771930
  H      -0.680913     -0.036497     -1.590874
  H      -2.697639     -1.228016     -2.360957
  H      -4.434264     -1.902284     -0.730929
  H      -4.134889     -1.380605      1.669778
  H      -2.125003     -0.204597      2.438507
  H       0.243110      3.698674      3.793219
  H       1.382230      2.423613      4.162499
  H       1.987416      3.960783      3.510695
  Br      1.214598     -0.546921      1.867092
23
Coordinates from ORCA-job orca_input E -5612.284635269649
  Br     -1.499621      3.177268      1.055108
  C      -0.052725      0.713694      0.885513
  C      -0.226846      1.853060      1.846097
  C       1.044078      2.668603      2.099657
  O       1.870521      2.814471      1.220167
  C      -1.268793     -0.027415      0.469868
  C      -1.440503     -0.330196     -0.878870
  C      -2.576789     -0.999804     -1.310628
  C      -3.549250     -1.377839     -0.395691
  C      -3.379679     -1.086269      0.953731
  C      -2.247052     -0.416644      1.384820
  C       1.174564      3.243341      3.468505
  H       0.542515      1.025738      0.037074
  H      -0.702676      1.556416      2.771421
  H      -0.682408     -0.034604     -1.592128
  H      -2.700834     -1.224724     -2.361133
  H      -4.435260     -1.900576     -0.730024
  H      -4.132789     -1.382609      1.671078
  H      -2.120385     -0.208377      2.438636
  H       0.241779      3.705874      3.786814
  H       1.372756      2.425805      4.164885
  H       1.988500      3.958760      3.511839
  Br      1.214847     -0.547783      1.867952
