23
d2
Br     -1.33940      3.86095       1.26786
 C     -0.61165      1.39445       0.57078
 C     -0.45760      2.18953       1.79512
 C      1.01364      2.52661       2.12504
 O      1.85494      2.41070       1.27641
 C     -1.51475      0.38127       0.33671
 C     -1.49034     -0.23807      -0.94685
 C     -2.35164     -1.26380      -1.23379
 C     -3.25105     -1.68843      -0.25689
 C     -3.30075     -1.09754       1.01046
 C     -2.44738     -0.07385       1.31358
 C      1.26879      2.96534       3.52931
 H      0.08001      1.66069      -0.22346
 H     -0.99279      1.82190       2.66280
 H     -0.78209      0.11381      -1.68549
 H     -2.33797     -1.74000      -2.20343
 H     -3.93187     -2.49909      -0.48417
 H     -4.01201     -1.45270       1.74216
 H     -2.48535      0.38586       2.29078
 H      0.54399      3.71979       3.83810
 H      1.14051      2.10303       4.18892
 H      2.28100      3.34868       3.62339
Br      1.55771     -1.22294       1.82735
